*SPEF "ieee 1481-1999"
*DESIGN "sar_fsm_wrapper"
*DATE "18:15:17 Tuesday September 22, 2026"
*VENDOR "The OpenROAD Project"
*PROGRAM "OpenROAD"
*VERSION "dcf36133a369abc8f3c5e5738cd4d82e4903c0e0"
*DESIGN_FLOW "NAME_SCOPE LOCAL" "PIN_CAP NONE"
*DIVIDER /
*DELIMITER :
*BUS_DELIMITER []
*T_UNIT 1 NS
*C_UNIT 1 PF
*R_UNIT 1 OHM
*L_UNIT 1 HENRY

*NAME_MAP
*3 bn0
*4 bn1
*5 bn2
*6 bn3
*7 bn4
*8 bn5
*9 bn6
*10 bn7
*11 bn8
*12 bn9
*13 bp0
*14 bp1
*15 bp2
*16 bp3
*17 bp4
*18 bp5
*19 bp6
*20 bp7
*21 bp8
*22 bp9
*23 busy
*24 clk
*25 code0
*26 code1
*27 code2
*28 code3
*29 code4
*30 code5
*31 code6
*32 code7
*33 code8
*34 code9
*35 comp
*36 comp_clk
*37 rst_n
*38 sample
*39 start
*40 valid
*41 _000_
*42 _001_
*43 _002_
*44 _003_
*45 _004_
*46 _005_
*47 _006_
*48 _007_
*49 _008_
*50 _009_
*51 _010_
*52 _011_
*53 _012_
*54 _013_
*55 _014_
*56 _015_
*57 _016_
*58 _017_
*59 _018_
*60 _019_
*61 _020_
*62 _021_
*63 _022_
*64 _023_
*65 _024_
*66 _025_
*67 _026_
*68 _027_
*69 _028_
*70 _029_
*71 _030_
*72 _031_
*73 _032_
*74 _033_
*75 _034_
*76 _035_
*77 _036_
*78 _037_
*79 _038_
*80 _039_
*81 _040_
*82 _041_
*83 _042_
*84 _043_
*85 _044_
*86 _045_
*87 _046_
*88 _047_
*89 _048_
*90 _049_
*91 _050_
*92 _051_
*93 _052_
*94 _053_
*95 _054_
*96 _055_
*97 _056_
*98 _057_
*99 _058_
*100 _059_
*101 _060_
*102 _061_
*103 _062_
*104 _063_
*105 _064_
*106 _065_
*107 _066_
*108 _067_
*109 _068_
*110 _069_
*111 _070_
*112 _071_
*113 _072_
*114 _073_
*115 _074_
*116 _075_
*117 _076_
*118 _077_
*119 _078_
*120 _079_
*121 _080_
*122 _081_
*123 _082_
*124 _083_
*125 _084_
*126 _085_
*127 _086_
*128 _087_
*129 _088_
*130 _089_
*131 _090_
*132 _091_
*133 _092_
*134 _093_
*135 _094_
*136 _095_
*137 _096_
*138 _097_
*139 _098_
*140 _099_
*141 _100_
*142 _101_
*143 _102_
*144 _103_
*145 _104_
*146 _105_
*147 _106_
*148 _107_
*149 _108_
*150 _109_
*151 _110_
*152 _111_
*153 _112_
*154 _113_
*155 _114_
*156 _115_
*157 _116_
*158 _117_
*159 _118_
*160 _119_
*161 _120_
*162 _121_
*163 _122_
*164 _123_
*165 _124_
*166 _125_
*167 _126_
*168 _127_
*169 _128_
*170 _129_
*171 _130_
*172 _131_
*173 _132_
*174 _133_
*175 _134_
*176 _135_
*177 _136_
*178 _137_
*179 _138_
*180 _139_
*181 _140_
*182 _141_
*183 _142_
*184 _143_
*185 _144_
*186 _145_
*187 _146_
*188 _147_
*189 _148_
*190 _149_
*191 _150_
*192 _151_
*193 _152_
*194 _153_
*195 _154_
*196 _155_
*197 _156_
*198 _157_
*199 _158_
*200 _159_
*201 _160_
*202 _161_
*203 _162_
*204 _163_
*205 _164_
*206 _165_
*207 _166_
*208 _167_
*209 _168_
*210 _169_
*211 _170_
*212 _171_
*213 _172_
*214 _173_
*215 _174_
*216 _175_
*217 _176_
*218 _177_
*219 _178_
*220 _179_
*221 _180_
*222 _181_
*223 _182_
*224 _183_
*225 _184_
*226 _185_
*227 _186_
*228 _187_
*229 _188_
*230 _189_
*231 _190_
*232 _191_
*233 _192_
*234 _193_
*235 _194_
*236 _195_
*237 _196_
*238 _197_
*239 _198_
*240 _199_
*241 _200_
*242 _201_
*243 _202_
*244 _203_
*245 _204_
*246 _205_
*247 _206_
*248 _207_
*249 _208_
*250 _209_
*251 _210_
*252 _211_\[0\]
*253 _211_\[5\]
*254 clknet_0_clk
*255 clknet_3_0__leaf_clk
*256 clknet_3_1__leaf_clk
*257 clknet_3_2__leaf_clk
*258 clknet_3_3__leaf_clk
*259 clknet_3_4__leaf_clk
*260 clknet_3_5__leaf_clk
*261 clknet_3_6__leaf_clk
*262 clknet_3_7__leaf_clk
*263 net1
*264 net10
*265 net100
*266 net101
*267 net102
*268 net103
*269 net104
*270 net105
*271 net106
*272 net107
*273 net108
*274 net109
*275 net11
*276 net110
*277 net111
*278 net112
*279 net113
*280 net114
*281 net115
*282 net116
*283 net117
*284 net118
*285 net119
*286 net12
*287 net120
*288 net121
*289 net122
*290 net123
*291 net124
*292 net125
*293 net126
*294 net127
*295 net128
*296 net129
*297 net13
*298 net130
*299 net131
*300 net132
*301 net133
*302 net134
*303 net135
*304 net136
*305 net137
*306 net138
*307 net139
*308 net14
*309 net140
*310 net141
*311 net142
*312 net143
*313 net144
*314 net145
*315 net146
*316 net147
*317 net148
*318 net149
*319 net15
*320 net150
*321 net151
*322 net152
*323 net153
*324 net154
*325 net155
*326 net156
*327 net157
*328 net158
*329 net159
*330 net16
*331 net160
*332 net161
*333 net162
*334 net163
*335 net164
*336 net165
*337 net166
*338 net167
*339 net168
*340 net169
*341 net17
*342 net170
*343 net171
*344 net172
*345 net173
*346 net174
*347 net18
*348 net19
*349 net2
*350 net20
*351 net21
*352 net22
*353 net23
*354 net24
*355 net25
*356 net26
*357 net27
*358 net28
*359 net29
*360 net3
*361 net30
*362 net31
*363 net32
*364 net33
*365 net34
*366 net35
*367 net36
*368 net37
*369 net38
*370 net39
*371 net4
*372 net40
*373 net41
*374 net42
*375 net43
*376 net44
*377 net45
*378 net46
*379 net47
*380 net48
*381 net49
*382 net5
*383 net50
*384 net51
*385 net52
*386 net53
*387 net54
*388 net55
*389 net56
*390 net57
*391 net58
*392 net59
*393 net6
*394 net60
*395 net61
*396 net62
*397 net63
*398 net64
*399 net65
*400 net66
*401 net67
*402 net68
*403 net69
*404 net7
*405 net70
*406 net71
*407 net72
*408 net73
*409 net74
*410 net75
*411 net76
*412 net77
*413 net78
*414 net79
*415 net8
*416 net80
*417 net81
*418 net82
*419 net83
*420 net84
*421 net85
*422 net86
*423 net87
*424 net88
*425 net89
*426 net9
*427 net90
*428 net91
*429 net92
*430 net93
*431 net94
*432 net95
*433 net96
*434 net97
*435 net98
*436 net99
*437 u_sar\.bit_idx\[1\]
*438 u_sar\.bit_idx\[2\]
*439 u_sar\.count\[0\]
*440 u_sar\.count\[1\]
*441 u_sar\.count\[2\]
*442 u_sar\.count\[3\]
*443 u_sar\.count\[4\]
*444 u_sar\.count\[5\]
*445 u_sar\.count\[6\]
*446 u_sar\.count\[7\]
*447 u_sar\.state\[0\]
*448 u_sar\.state\[1\]
*449 u_sar\.state\[2\]
*450 FILLER_0_0
*451 FILLER_0_105
*452 FILLER_0_112
*453 FILLER_0_119
*454 FILLER_0_126
*455 FILLER_0_133
*456 FILLER_0_14
*457 FILLER_0_140
*458 FILLER_0_147
*459 FILLER_0_154
*460 FILLER_0_161
*461 FILLER_0_168
*462 FILLER_0_175
*463 FILLER_0_21
*464 FILLER_0_28
*465 FILLER_0_35
*466 FILLER_0_42
*467 FILLER_0_49
*468 FILLER_0_56
*469 FILLER_0_63
*470 FILLER_0_7
*471 FILLER_0_70
*472 FILLER_0_77
*473 FILLER_0_84
*474 FILLER_0_91
*475 FILLER_0_98
*476 FILLER_10_0
*477 FILLER_10_109
*478 FILLER_10_135
*479 FILLER_10_14
*480 FILLER_10_21
*481 FILLER_10_224
*482 FILLER_10_28
*483 FILLER_10_35
*484 FILLER_10_42
*485 FILLER_10_49
*486 FILLER_10_53
*487 FILLER_10_7
*488 FILLER_10_81
*489 FILLER_10_88
*490 FILLER_10_95
*491 FILLER_11_0
*492 FILLER_11_101
*493 FILLER_11_108
*494 FILLER_11_14
*495 FILLER_11_146
*496 FILLER_11_153
*497 FILLER_11_21
*498 FILLER_11_28
*499 FILLER_11_35
*500 FILLER_11_42
*501 FILLER_11_49
*502 FILLER_11_53
*503 FILLER_11_7
*504 FILLER_11_82
*505 FILLER_12_0
*506 FILLER_12_112
*507 FILLER_12_119
*508 FILLER_12_136
*509 FILLER_12_14
*510 FILLER_12_149
*511 FILLER_12_21
*512 FILLER_12_28
*513 FILLER_12_35
*514 FILLER_12_42
*515 FILLER_12_49
*516 FILLER_12_56
*517 FILLER_12_7
*518 FILLER_12_73
*519 FILLER_13_0
*520 FILLER_13_103
*521 FILLER_13_113
*522 FILLER_13_115
*523 FILLER_13_14
*524 FILLER_13_145
*525 FILLER_13_188
*526 FILLER_13_21
*527 FILLER_13_225
*528 FILLER_13_28
*529 FILLER_13_35
*530 FILLER_13_42
*531 FILLER_13_7
*532 FILLER_13_82
*533 FILLER_13_93
*534 FILLER_14_0
*535 FILLER_14_14
*536 FILLER_14_148
*537 FILLER_14_175
*538 FILLER_14_187
*539 FILLER_14_21
*540 FILLER_14_28
*541 FILLER_14_35
*542 FILLER_14_43
*543 FILLER_14_65
*544 FILLER_14_67
*545 FILLER_14_7
*546 FILLER_14_92
*547 FILLER_15_11
*548 FILLER_15_114
*549 FILLER_15_154
*550 FILLER_15_173
*551 FILLER_15_18
*552 FILLER_15_25
*553 FILLER_15_32
*554 FILLER_15_4
*555 FILLER_15_78
*556 FILLER_15_82
*557 FILLER_15_87
*558 FILLER_16_107
*559 FILLER_16_140
*560 FILLER_16_16
*561 FILLER_16_189
*562 FILLER_16_23
*563 FILLER_16_30
*564 FILLER_16_58
*565 FILLER_16_65
*566 FILLER_16_67
*567 FILLER_16_73
*568 FILLER_16_9
*569 FILLER_16_92
*570 FILLER_17_0
*571 FILLER_17_114
*572 FILLER_17_14
*573 FILLER_17_163
*574 FILLER_17_18
*575 FILLER_17_61
*576 FILLER_17_7
*577 FILLER_17_81
*578 FILLER_17_90
*579 FILLER_18_0
*580 FILLER_18_101
*581 FILLER_18_106
*582 FILLER_18_14
*583 FILLER_18_163
*584 FILLER_18_48
*585 FILLER_18_7
*586 FILLER_18_82
*587 FILLER_19_0
*588 FILLER_19_14
*589 FILLER_19_155
*590 FILLER_19_21
*591 FILLER_19_216
*592 FILLER_19_28
*593 FILLER_19_48
*594 FILLER_19_58
*595 FILLER_19_7
*596 FILLER_1_0
*597 FILLER_1_105
*598 FILLER_1_112
*599 FILLER_1_119
*600 FILLER_1_126
*601 FILLER_1_133
*602 FILLER_1_14
*603 FILLER_1_140
*604 FILLER_1_147
*605 FILLER_1_154
*606 FILLER_1_161
*607 FILLER_1_168
*608 FILLER_1_172
*609 FILLER_1_208
*610 FILLER_1_21
*611 FILLER_1_28
*612 FILLER_1_35
*613 FILLER_1_42
*614 FILLER_1_49
*615 FILLER_1_56
*616 FILLER_1_63
*617 FILLER_1_7
*618 FILLER_1_70
*619 FILLER_1_77
*620 FILLER_1_84
*621 FILLER_1_91
*622 FILLER_1_98
*623 FILLER_20_0
*624 FILLER_20_14
*625 FILLER_20_148
*626 FILLER_20_21
*627 FILLER_20_25
*628 FILLER_20_7
*629 FILLER_21_11
*630 FILLER_21_18
*631 FILLER_21_225
*632 FILLER_21_25
*633 FILLER_21_4
*634 FILLER_21_90
*635 FILLER_22_13
*636 FILLER_22_20
*637 FILLER_22_22
*638 FILLER_22_27
*639 FILLER_22_31
*640 FILLER_22_81
*641 FILLER_2_0
*642 FILLER_2_109
*643 FILLER_2_116
*644 FILLER_2_120
*645 FILLER_2_127
*646 FILLER_2_134
*647 FILLER_2_14
*648 FILLER_2_141
*649 FILLER_2_148
*650 FILLER_2_155
*651 FILLER_2_162
*652 FILLER_2_189
*653 FILLER_2_21
*654 FILLER_2_28
*655 FILLER_2_35
*656 FILLER_2_42
*657 FILLER_2_49
*658 FILLER_2_56
*659 FILLER_2_63
*660 FILLER_2_7
*661 FILLER_2_70
*662 FILLER_2_74
*663 FILLER_2_80
*664 FILLER_2_87
*665 FILLER_2_94
*666 FILLER_2_98
*667 FILLER_3_0
*668 FILLER_3_109
*669 FILLER_3_111
*670 FILLER_3_14
*671 FILLER_3_144
*672 FILLER_3_149
*673 FILLER_3_151
*674 FILLER_3_21
*675 FILLER_3_28
*676 FILLER_3_35
*677 FILLER_3_42
*678 FILLER_3_49
*679 FILLER_3_56
*680 FILLER_3_63
*681 FILLER_3_7
*682 FILLER_3_70
*683 FILLER_3_76
*684 FILLER_4_0
*685 FILLER_4_113
*686 FILLER_4_115
*687 FILLER_4_125
*688 FILLER_4_14
*689 FILLER_4_21
*690 FILLER_4_28
*691 FILLER_4_35
*692 FILLER_4_42
*693 FILLER_4_49
*694 FILLER_4_7
*695 FILLER_4_80
*696 FILLER_4_96
*697 FILLER_4_98
*698 FILLER_5_0
*699 FILLER_5_108
*700 FILLER_5_14
*701 FILLER_5_165
*702 FILLER_5_198
*703 FILLER_5_21
*704 FILLER_5_28
*705 FILLER_5_35
*706 FILLER_5_42
*707 FILLER_5_49
*708 FILLER_5_66
*709 FILLER_5_7
*710 FILLER_5_88
*711 FILLER_6_0
*712 FILLER_6_100
*713 FILLER_6_135
*714 FILLER_6_14
*715 FILLER_6_21
*716 FILLER_6_215
*717 FILLER_6_28
*718 FILLER_6_35
*719 FILLER_6_39
*720 FILLER_6_7
*721 FILLER_6_92
*722 FILLER_7_106
*723 FILLER_7_11
*724 FILLER_7_118
*725 FILLER_7_18
*726 FILLER_7_192
*727 FILLER_7_25
*728 FILLER_7_32
*729 FILLER_7_39
*730 FILLER_7_4
*731 FILLER_7_46
*732 FILLER_7_92
*733 FILLER_7_99
*734 FILLER_8_106
*735 FILLER_8_115
*736 FILLER_8_146
*737 FILLER_8_16
*738 FILLER_8_23
*739 FILLER_8_30
*740 FILLER_8_37
*741 FILLER_8_9
*742 FILLER_9_0
*743 FILLER_9_121
*744 FILLER_9_14
*745 FILLER_9_159
*746 FILLER_9_178
*747 FILLER_9_197
*748 FILLER_9_21
*749 FILLER_9_23
*750 FILLER_9_33
*751 FILLER_9_48
*752 FILLER_9_55
*753 FILLER_9_62
*754 FILLER_9_7
*755 FILLER_9_91
*756 FILLER_9_93
*757 _212_
*758 _213_
*759 _214_
*760 _215_
*761 _216_
*762 _217_
*763 _218_
*764 _219_
*765 _220_
*766 _221_
*767 _222_
*768 _223_
*769 _224_
*770 _225_
*771 _226_
*772 _227_
*773 _228_
*774 _229_
*775 _230_
*776 _231_
*777 _232_
*778 _233_
*779 _234_
*780 _235_
*781 _236_
*782 _237_
*783 _238_
*784 _239_
*785 _240_
*786 _241_
*787 _242_
*788 _243_
*789 _244_
*790 _245_
*791 _246_
*792 _247_
*793 _248_
*794 _249_
*795 _250_
*796 _251_
*797 _252_
*798 _253_
*799 _254_
*800 _255_
*801 _256_
*802 _257_
*803 _258_
*804 _259_
*805 _260_
*806 _261_
*807 _262_
*808 _263_
*809 _264_
*810 _265_
*811 _266_
*812 _267_
*813 _268_
*814 _269_
*815 _270_
*816 _271_
*817 _272_
*818 _273_
*819 _274_
*820 _275_
*821 _276_
*822 _277_
*823 _278_
*824 _279_
*825 _280_
*826 _281_
*827 _282_
*828 _283_
*829 _284_
*830 _285_
*831 _286_
*832 _287_
*833 _288_
*834 _289_
*835 _290_
*836 _291_
*837 _292_
*838 _293_
*839 _294_
*840 _295_
*841 _296_
*842 _297_
*843 _298_
*844 _299_
*845 _300_
*846 _301_
*847 _302_
*848 _303_
*849 _304_
*850 _305_
*851 _306_
*852 _307_
*853 _308_
*854 _309_
*855 _310_
*856 _311_
*857 _312_
*858 _313_
*859 _314_
*860 _315_
*861 _316_
*862 _317_
*863 _318_
*864 _319_
*865 _320_
*866 _321_
*867 _322_
*868 _323_
*869 _324_
*870 _325_
*871 _326_
*872 _327_
*873 _328_
*874 _329_
*875 _330_
*876 _331_
*877 _332_
*878 _333_
*879 _334_
*880 _335_
*881 _336_
*882 _337_
*883 _338_
*884 _339_
*885 _340_
*886 _341_
*887 _342_
*888 _343_
*889 _344_
*890 _345_
*891 _346_
*892 _347_
*893 _348_
*894 _349_
*895 _350_
*896 _351_
*897 _352_
*898 _353_
*899 _354_
*900 _355_
*901 _356_
*902 _357_
*903 _358_
*904 _359_
*905 _360_
*906 _361_
*907 _362_
*908 _363_
*909 _364_
*910 _365_
*911 _366_
*912 _367_
*913 _368_
*914 _369_
*915 _370_
*916 _371_
*917 _372_
*918 _373_
*919 _374_
*920 _375_
*921 _376_
*922 _377_
*923 _378_
*924 _379_
*925 _380_
*926 _381_
*927 _382_
*928 _383_
*929 _384_
*930 _385_
*931 _386_
*932 _387_
*933 _388_
*934 _389_
*935 _390_
*936 _391_
*937 _392_
*938 _393_
*939 _394_
*940 _395_
*941 _396_
*942 _397_
*943 _398_
*944 _399_
*945 _400_
*946 _401_
*947 _402_
*948 _403_
*949 _404_
*950 _405_
*951 _406_
*952 _407_
*953 _408_
*954 _409_
*955 _410_
*956 _411_
*957 _412_
*958 _413_
*959 _414_
*960 _415_
*961 _416_
*962 _417_
*963 _418_
*964 _419_
*965 _420_
*966 _421_
*967 _422_
*968 _423_
*969 _424_
*970 _425_
*971 _426_
*972 _427_
*973 _428_
*974 _429_
*975 _430_
*976 _431_
*977 _432_
*978 _433_
*979 _434_
*980 _435_
*981 _436_
*982 _437_
*983 _438_
*984 _439_
*985 _440_
*986 _441_
*987 _442_
*988 _443_
*989 _444_
*990 _445_
*991 _446_
*992 _447_
*993 _448_
*994 _449_
*995 _450_
*996 _451_
*997 _452_
*998 _453_
*999 _454_
*1000 _455_
*1001 _456_
*1002 _457_
*1003 _458_
*1004 _459_
*1005 _460_
*1006 _461_
*1007 _462_
*1008 _463_
*1009 _464_
*1010 _465_
*1011 _466_
*1012 _467_
*1013 _468_
*1014 _469_
*1015 _470_
*1016 clkbuf_0_clk
*1017 clkbuf_3_0__f_clk
*1018 clkbuf_3_1__f_clk
*1019 clkbuf_3_2__f_clk
*1020 clkbuf_3_3__f_clk
*1021 clkbuf_3_4__f_clk
*1022 clkbuf_3_5__f_clk
*1023 clkbuf_3_6__f_clk
*1024 clkbuf_3_7__f_clk
*1025 clkload0
*1026 clkload1
*1027 clkload2
*1028 clkload3
*1029 clkload4
*1030 clkload5
*1031 clkload6
*1032 fanout38
*1033 fanout39
*1034 fanout40
*1035 fanout41
*1036 fanout42
*1037 fanout43
*1038 fanout44
*1039 fanout45
*1040 fanout46
*1041 fanout47
*1042 fanout48
*1043 fanout49
*1044 fanout50
*1045 fanout51
*1046 fanout52
*1047 fanout53
*1048 fanout54
*1049 fanout55
*1050 fanout56
*1051 fanout57
*1052 fanout58
*1053 fanout59
*1054 fanout60
*1055 fanout61
*1056 fanout62
*1057 fanout63
*1058 fanout64
*1059 fanout65
*1060 fanout66
*1061 fanout67
*1062 hold100
*1063 hold101
*1064 hold102
*1065 hold103
*1066 hold104
*1067 hold105
*1068 hold106
*1069 hold107
*1070 hold108
*1071 hold109
*1072 hold110
*1073 hold111
*1074 hold112
*1075 hold113
*1076 hold114
*1077 hold115
*1078 hold116
*1079 hold117
*1080 hold118
*1081 hold119
*1082 hold120
*1083 hold121
*1084 hold122
*1085 hold123
*1086 hold124
*1087 hold125
*1088 hold126
*1089 hold127
*1090 hold128
*1091 hold129
*1092 hold130
*1093 hold131
*1094 hold132
*1095 hold133
*1096 hold134
*1097 hold135
*1098 hold136
*1099 hold137
*1100 hold138
*1101 hold139
*1102 hold140
*1103 hold141
*1104 hold142
*1105 hold143
*1106 hold144
*1107 hold145
*1108 hold146
*1109 hold147
*1110 hold148
*1111 hold149
*1112 hold150
*1113 hold151
*1114 hold152
*1115 hold153
*1116 hold154
*1117 hold155
*1118 hold156
*1119 hold157
*1120 hold158
*1121 hold159
*1122 hold160
*1123 hold161
*1124 hold162
*1125 hold163
*1126 hold164
*1127 hold165
*1128 hold166
*1129 hold167
*1130 hold168
*1131 hold169
*1132 hold170
*1133 hold171
*1134 hold172
*1135 hold173
*1136 hold174
*1137 hold68
*1138 hold69
*1139 hold70
*1140 hold71
*1141 hold72
*1142 hold73
*1143 hold74
*1144 hold75
*1145 hold76
*1146 hold77
*1147 hold78
*1148 hold79
*1149 hold80
*1150 hold81
*1151 hold82
*1152 hold83
*1153 hold84
*1154 hold85
*1155 hold86
*1156 hold87
*1157 hold88
*1158 hold89
*1159 hold90
*1160 hold91
*1161 hold92
*1162 hold93
*1163 hold94
*1164 hold95
*1165 hold96
*1166 hold97
*1167 hold98
*1168 hold99
*1169 input1
*1170 input2
*1171 input3
*1172 output10
*1173 output11
*1174 output12
*1175 output13
*1176 output14
*1177 output15
*1178 output16
*1179 output17
*1180 output18
*1181 output19
*1182 output20
*1183 output21
*1184 output22
*1185 output23
*1186 output24
*1187 output25
*1188 output26
*1189 output27
*1190 output28
*1191 output29
*1192 output30
*1193 output31
*1194 output32
*1195 output33
*1196 output34
*1197 output35
*1198 output36
*1199 output37
*1200 output4
*1201 output5
*1202 output6
*1203 output7
*1204 output8
*1205 output9

*PORTS
bn0 O
bn1 O
bn2 O
bn3 O
bn4 O
bn5 O
bn6 O
bn7 O
bn8 O
bn9 O
bp0 O
bp1 O
bp2 O
bp3 O
bp4 O
bp5 O
bp6 O
bp7 O
bp8 O
bp9 O
busy O
clk I
code0 O
code1 O
code2 O
code3 O
code4 O
code5 O
code6 O
code7 O
code8 O
code9 O
comp I
comp_clk O
rst_n I
sample O
start I
valid O

*D_NET *3 0.0105666
*CONN
*P bn0 O
*I *1200:X O *D sg13cmos5l_buf_1
*CAP
1 bn0 0.002129
2 *1200:X 9.23708e-05
3 *3:30 0.00361213
4 *3:18 0.00257971
5 *3:10 0.00118895
6 bn0 code1 0
7 bn0 *23:28 0
8 bn0 *27:10 0
9 bn0 *40:22 0
10 *3:10 *307:32 0.00012938
11 *3:18 *873:B1 0.0001292
12 *3:18 *23:16 0
13 *3:30 code3 0
14 *3:30 *984:CLK 0.000338717
15 *3:30 *1190:A 0
16 *3:30 *23:24 0
17 *3:30 *90:18 0
18 *3:30 *314:24 0
19 *3:30 *400:46 0.00036715
20 *3:30 *400:61 0
21 *3:30 *413:10 0
*RES
1 *1200:X *3:10 40.9476 
2 *3:10 *3:18 46.7568 
3 *3:18 *3:30 35.7178 
4 *3:30 bn0 46.8933 
*END

*D_NET *4 0.0104974
*CONN
*P bn1 O
*I *1201:X O *D sg13cmos5l_buf_1
*CAP
1 bn1 0.00224634
2 *1201:X 0.000166513
3 *4:12 0.00391396
4 *4:8 0.00183413
5 bn1 *23:28 0
6 bn1 *25:16 0.00188992
7 bn1 *40:22 0
8 *4:8 *868:A1 0.000136655
9 *4:8 *868:A2 0
10 *4:8 *869:A2 0
11 *4:8 *302:14 0
12 *4:8 *310:45 1.54008e-05
13 *4:12 *170:33 0.00014814
14 *4:12 *342:18 0
15 *4:12 *379:51 0.000146301
*RES
1 *1201:X *4:8 41.6171 
2 *4:8 *4:12 35.6766 
3 *4:12 bn1 48.6237 
*END

*D_NET *5 0.0103606
*CONN
*P bn2 O
*I *1202:X O *D sg13cmos5l_buf_1
*CAP
1 bn2 0.00187364
2 *1202:X 0
3 *5:32 0.00326928
4 *5:16 0.00216707
5 *5:6 0.000771424
6 bn2 *314:10 0
7 bn2 *368:12 0
8 *5:16 *40:12 0
9 *5:16 *102:22 0
10 *5:16 *170:33 0
11 *5:16 *184:8 0
12 *5:16 *186:18 0
13 *5:16 *258:51 0
14 *5:16 *314:24 0.000131027
15 *5:16 *342:18 0
16 *5:16 *355:14 0.000962942
17 *5:16 *387:91 0.000825289
18 *5:32 *1013:RESET_B 0
19 *5:32 *1013:CLK 0
20 *5:32 *1020:A 0
21 *5:32 *1154:A 7.00878e-05
22 *5:32 *1190:A 0
23 *5:32 *23:24 0
24 *5:32 *25:10 0
25 *5:32 *254:63 0
26 *5:32 *258:35 0
27 *5:32 *258:39 0.000145116
28 *5:32 *258:43 0
29 *5:32 *263:38 0.000144768
30 *5:32 *400:61 0
31 *5:32 *400:65 0
*RES
1 *1202:X *5:6 40 
2 *5:6 *5:16 48.8969 
3 *5:16 *5:32 33.1428 
4 *5:32 bn2 43.4325 
*END

*D_NET *6 0.0145224
*CONN
*P bn3 O
*I *1203:X O *D sg13cmos5l_buf_1
*CAP
1 bn3 0.00274172
2 *1203:X 0.00117073
3 *6:16 0.00274172
4 *6:14 0.00117073
5 bn3 *1191:A 0.000287672
6 bn3 *97:14 0
7 bn3 *303:14 0
8 bn3 *342:12 0.00508604
9 bn3 *368:12 0
10 bn3 *382:8 0
11 bn3 *400:71 0
12 *6:14 *884:B1 0
13 *6:14 *884:A2 0
14 *6:14 *891:A 0
15 *6:14 *893:B 8.00842e-05
16 *6:14 *893:A 0
17 *6:14 *1064:A 0
18 *6:14 *1156:A 0.000530542
19 *6:14 *7:18 0
20 *6:14 *193:10 0
21 *6:14 *202:39 0
22 *6:14 *205:14 3.72671e-05
23 *6:14 *303:14 0
24 *6:14 *303:26 0.000435037
25 *6:14 *321:24 0.000240881
26 *6:14 *321:42 0
27 *6:14 *392:97 0
*RES
1 *1203:X *6:14 31.7008 
2 *6:14 *6:16 20 
3 *6:16 bn3 32.3317 
*END

*D_NET *7 0.0126681
*CONN
*P bn4 O
*I *1204:X O *D sg13cmos5l_buf_1
*CAP
1 bn4 1.86264e-05
2 *1204:X 0.000698394
3 *7:30 0.00224776
4 *7:24 0.00268712
5 *7:18 0.00115638
6 *7:18 *874:A 7.59424e-05
7 *7:18 *874:B 4.86353e-05
8 *7:18 *878:B 0.000144132
9 *7:18 *880:A 0
10 *7:18 *886:A 0
11 *7:18 *1063:A 0
12 *7:18 *193:10 0
13 *7:18 *198:16 0
14 *7:18 *202:39 0.00114406
15 *7:18 *265:12 0
16 *7:18 *303:32 0
17 *7:18 *314:24 0
18 *7:18 *321:24 0
19 *7:18 *379:51 0.000666284
20 *7:18 *384:71 0.000144767
21 *7:18 *387:79 0
22 *7:24 *23:16 0
23 *7:30 bn5 0
24 *7:30 *40:18 0
25 *7:30 *72:8 0
26 *7:30 *97:14 0
27 *7:30 *321:24 0
28 *7:30 *372:117 0.00167556
29 *7:30 *399:56 0.000553662
30 *7:30 *399:74 0.00140674
31 *7:30 *400:61 0
32 *6:14 *7:18 0
*RES
1 *1204:X *7:18 49.2429 
2 *7:18 *7:24 42.6986 
3 *7:24 *7:30 46.9963 
4 *7:30 bn4 20.1957 
*END

*D_NET *8 0.00781539
*CONN
*P bn5 O
*I *1205:X O *D sg13cmos5l_buf_1
*CAP
1 bn5 0.00216396
2 *1205:X 0.00010578
3 *8:14 0.00297962
4 *8:8 0.000921443
5 bn5 *72:8 0
6 bn5 *74:10 0
7 bn5 *103:22 0
8 bn5 *202:54 0
9 bn5 *230:8 0
10 bn5 *254:75 0
11 bn5 *254:145 0
12 bn5 *262:59 0
13 bn5 *372:102 0.000183758
14 bn5 *399:74 0
15 bn5 *401:68 0
16 *8:8 *198:31 0.000553759
17 *8:8 *298:37 0.000554174
18 *8:14 *926:B 0.000128577
19 *8:14 *926:C 0
20 *8:14 *1059:A 0.000111881
21 *8:14 *1168:A 0
22 *8:14 *1188:A 0
23 *8:14 *26:18 0
24 *8:14 *193:29 0.000112437
25 *8:14 *213:36 0
26 *8:14 *263:53 0
27 *8:14 *355:14 0
28 *8:14 *399:10 0
29 *7:30 bn5 0
*RES
1 *1205:X *8:8 42.575 
2 *8:8 *8:14 47.2409 
3 *8:14 bn5 21.8463 
*END

*D_NET *9 0.0106929
*CONN
*P bn6 O
*I *1172:X O *D sg13cmos5l_buf_1
*CAP
1 bn6 0.000474692
2 *1172:X 3.7009e-05
3 *9:14 0.00213641
4 *9:8 0.00169872
5 bn6 *401:68 0.000287256
6 *9:14 bn8 0
7 *9:14 *920:B 0.000290043
8 *9:14 *938:A 0.000553671
9 *9:14 *940:A 0.000287204
10 *9:14 *1031:A 0
11 *9:14 *198:31 0
12 *9:14 *225:18 0.000716652
13 *9:14 *261:55 0
14 *9:14 *273:35 0
15 *9:14 *288:6 0
16 *9:14 *299:10 8.01933e-05
17 *9:14 *310:8 0.000338846
18 *9:14 *310:14 0
19 *9:14 *344:16 0.00284482
20 *9:14 *388:45 0.000447135
21 *9:14 *399:29 0.000500214
*RES
1 *1172:X *9:8 40.3193 
2 *9:8 *9:14 43.8136 
3 *9:14 bn6 25.3869 
*END

*D_NET *10 0.00289762
*CONN
*P bn7 O
*I *1173:X O *D sg13cmos5l_buf_1
*CAP
1 bn7 0.000582838
2 *1173:X 0.000575697
3 *10:10 0.00115854
4 bn7 *97:22 0
5 bn7 *261:72 0
6 *10:10 *1031:A 4.79124e-05
7 *10:10 *1084:A 0
8 *10:10 *1173:A 0
9 *10:10 *261:10 1.54282e-05
10 *10:10 *261:37 0.000193477
11 *10:10 *261:44 0.000323735
12 *10:10 *261:55 0
*RES
1 *1173:X *10:10 45.8607 
2 *10:10 bn7 6.3757 
*END

*D_NET *11 0.00487645
*CONN
*P bn8 O
*I *1174:X O *D sg13cmos5l_buf_1
*CAP
1 bn8 0.000771301
2 *1174:X 0.000767554
3 *11:10 0.00153885
4 bn8 *76:10 0.000395177
5 bn8 *227:43 0
6 bn8 *278:8 0
7 *11:10 *1001:D 0.000177268
8 *11:10 *1002:D 7.98779e-05
9 *11:10 *1003:D 0
10 *11:10 *1091:A 0
11 *11:10 *103:14 0.00114641
12 *11:10 *105:16 0
13 *11:10 *354:36 0
14 *9:14 bn8 0
*RES
1 *1174:X *11:10 48.5181 
2 *11:10 bn8 9.0949 
*END

*D_NET *12 0.00594415
*CONN
*P bn9 O
*I *1175:X O *D sg13cmos5l_buf_1
*CAP
1 bn9 0.000528014
2 *1175:X 9.3348e-05
3 *12:12 0.00276065
4 *12:8 0.00232598
5 bn9 *13:22 0
6 bn9 *227:43 0
7 bn9 *296:45 0
8 bn9 *370:113 0
9 *12:8 bp9 0
10 *12:8 *18:10 0.000236158
11 *12:12 *16:14 0
12 *12:12 *300:24 0
*RES
1 *1175:X *12:8 41.0918 
2 *12:8 *12:12 45.6264 
3 *12:12 bn9 26.3757 
*END

*D_NET *13 0.00787738
*CONN
*P bp0 O
*I *1176:X O *D sg13cmos5l_buf_1
*CAP
1 bp0 1.89563e-05
2 *1176:X 0.000377104
3 *13:22 0.00145661
4 *13:12 0.00181476
5 *13:12 *917:A 0.000124145
6 *13:12 *1176:A 0
7 *13:12 *88:8 0.0008217
8 *13:12 *223:8 0
9 *13:12 *384:31 0
10 *13:12 *388:37 0
11 *13:12 *405:35 0.000342145
12 *13:22 *79:8 0.000181279
13 *13:22 *238:16 0.000827594
14 *13:22 *241:8 0
15 *13:22 *296:18 0.000453639
16 *13:22 *296:45 0
17 *13:22 *308:8 0.00145945
18 *13:22 *376:8 0
19 bn9 *13:22 0
*RES
1 *1176:X *13:12 45.1912 
2 *13:12 *13:22 38.5812 
3 *13:22 bp0 20.1957 
*END

*D_NET *14 0.00749459
*CONN
*P bp1 O
*I *1177:X O *D sg13cmos5l_buf_1
*CAP
1 bp1 0.000357382
2 *1177:X 0.00191929
3 *14:10 0.00227667
4 *14:10 *958:B1 0.000629689
5 *14:10 *18:16 0
6 *14:10 *115:12 0.000240196
7 *14:10 *254:127 0
8 *14:10 *278:41 8.00842e-05
9 *14:10 *288:25 0.00199127
10 *14:10 *292:14 0
11 *14:10 *305:8 0
12 *14:10 *369:44 0
*RES
1 *1177:X *14:10 40.5485 
2 *14:10 bp1 24.3981 
*END

*D_NET *15 0.00701774
*CONN
*P bp2 O
*I *1178:X O *D sg13cmos5l_buf_1
*CAP
1 bp2 0.000569697
2 *1178:X 0.00184773
3 *15:24 0.00241743
4 bp2 *291:10 0
5 bp2 *300:8 0
6 *15:24 *950:A2 0
7 *15:24 *950:B1 8.02102e-05
8 *15:24 *1005:CLK 0
9 *15:24 *1109:A 0.000522139
10 *15:24 *17:12 0
11 *15:24 *111:18 0.000468333
12 *15:24 *260:14 0.000306772
13 *15:24 *260:25 0.000369679
14 *15:24 *260:71 6.46834e-05
15 *15:24 *278:41 0
16 *15:24 *296:45 0
17 *15:24 *300:30 0.000371075
18 *15:24 *316:6 0
*RES
1 *1178:X *15:24 39.1683 
2 *15:24 bp2 26.3757 
*END

*D_NET *16 0.00403587
*CONN
*P bp3 O
*I *1179:X O *D sg13cmos5l_buf_1
*CAP
1 bp3 0.000370247
2 *1179:X 0.000218067
3 *16:14 0.00157356
4 *16:10 0.00142138
5 bp3 *305:49 0
6 *16:10 *18:10 0.00045262
7 *16:10 *294:8 0
8 *16:10 *305:55 0
9 *12:12 *16:14 0
*RES
1 *1179:X *16:10 42.6162 
2 *16:10 *16:14 34.8114 
3 *16:14 bp3 24.3981 
*END

*D_NET *17 0.00559109
*CONN
*P bp4 O
*I *1180:X O *D sg13cmos5l_buf_1
*CAP
1 bp4 0.000652765
2 *1180:X 0.00139414
3 *17:12 0.00204691
4 bp4 *81:12 0
5 bp4 *111:18 0
6 bp4 *260:10 0.000290129
7 bp4 *290:8 0
8 *17:12 *1008:RESET_B 0
9 *17:12 *1181:A 0.000144767
10 *17:12 *103:14 0
11 *17:12 *290:29 0
12 *17:12 *295:10 0.000144102
13 *17:12 *300:24 0
14 *17:12 *316:6 0.00087053
15 *17:12 *318:12 0
16 *17:12 *396:77 0
17 *17:12 *396:103 4.77425e-05
18 *15:24 *17:12 0
*RES
1 *1180:X *17:12 33.7299 
2 *17:12 bp4 27.6838 
*END

*D_NET *18 0.00502287
*CONN
*P bp5 O
*I *1181:X O *D sg13cmos5l_buf_1
*CAP
1 bp5 0.000296546
2 *1181:X 0.000319602
3 *18:16 0.00129939
4 *18:10 0.00132244
5 *18:10 bp9 0
6 *18:10 *1181:A 0
7 *18:10 *294:8 0
8 *18:10 *305:55 0
9 *18:16 *1087:A 0.000436774
10 *18:16 *1089:A 0
11 *18:16 *1105:A 0.00040288
12 *18:16 *245:42 8.00842e-05
13 *18:16 *278:41 0
14 *18:16 *288:25 0
15 *18:16 *298:24 0.000176383
16 *12:8 *18:10 0.000236158
17 *14:10 *18:16 0
18 *16:10 *18:10 0.00045262
*RES
1 *1181:X *18:10 44.1303 
2 *18:10 *18:16 49.8365 
3 *18:16 bp5 3.6565 
*END

*D_NET *19 0.00415837
*CONN
*P bp6 O
*I *1182:X O *D sg13cmos5l_buf_1
*CAP
1 bp6 1.86264e-05
2 *1182:X 0.000591253
3 *19:16 0.00121496
4 *19:10 0.00178758
5 *19:10 *1007:CLK 0.000208633
6 *19:10 *1182:A 4.77425e-05
7 *19:10 *1198:A 0
8 *19:10 *21:10 0
9 *19:10 *84:12 0
10 *19:10 *245:28 0.000112379
11 *19:10 *260:33 0
12 *19:10 *340:10 0.000177191
13 *19:16 bp7 0
14 *19:16 *103:10 0
15 *19:16 *105:8 0
16 *19:16 *288:25 0
*RES
1 *1182:X *19:10 45.6444 
2 *19:10 *19:16 32.4115 
3 *19:16 bp6 20.1957 
*END

*D_NET *20 0.0032937
*CONN
*P bp7 O
*I *1183:X O *D sg13cmos5l_buf_1
*CAP
1 bp7 0.00095783
2 *1183:X 0
3 *20:12 0.00137007
4 *20:6 0.000412238
5 bp7 *245:42 0
6 bp7 *298:24 0
7 bp7 *313:8 0.000553565
8 *19:16 bp7 0
*RES
1 *1183:X *20:6 40 
2 *20:6 *20:12 44.8616 
3 *20:12 bp7 9.3421 
*END

*D_NET *21 0.00360484
*CONN
*P bp8 O
*I *1184:X O *D sg13cmos5l_buf_1
*CAP
1 bp8 0.000834094
2 *1184:X 0.000288471
3 *21:10 0.00112257
4 bp8 *778:A 0.000449139
5 bp8 *115:12 0
6 bp8 *260:33 0
7 bp8 *292:14 0.000765799
8 bp8 *298:24 0
9 bp8 *305:55 0
10 bp8 *396:103 0
11 *21:10 *954:B1 0
12 *21:10 *1198:A 0
13 *21:10 *84:12 0
14 *21:10 *243:30 0.000144768
15 *21:10 *290:29 0
16 *19:10 *21:10 0
*RES
1 *1184:X *21:10 42.8634 
2 *21:10 bp8 10.8253 
*END

*D_NET *22 0.00442488
*CONN
*P bp9 O
*I *1185:X O *D sg13cmos5l_buf_1
*CAP
1 bp9 0.000795468
2 *1185:X 0.000132946
3 *22:8 0.000928414
4 bp9 *781:A 0.000501045
5 bp9 *294:8 0
6 bp9 *305:55 0
7 bp9 *312:8 0.00130284
8 bp9 *312:14 0.000289002
9 bp9 *316:21 0
10 bp9 *318:12 0.000265663
11 *22:8 *1197:A 0
12 *22:8 *1198:A 0.000209505
13 *12:8 bp9 0
14 *18:10 bp9 0
*RES
1 *1185:X *22:8 41.4008 
2 *22:8 bp9 12.0613 
*END

*D_NET *23 0.00930921
*CONN
*P busy O
*I *1186:X O *D sg13cmos5l_buf_1
*CAP
1 busy 0.000475143
2 *1186:X 9.39999e-05
3 *23:28 0.00182176
4 *23:24 0.00175256
5 *23:16 0.00165715
6 *23:12 0.00134521
7 *23:12 *981:CLK 0
8 *23:12 *90:18 6.95576e-05
9 *23:12 *198:31 0.000129186
10 *23:12 *298:37 7.52158e-05
11 *23:24 *25:10 0
12 *23:28 code1 0
13 *23:28 *25:16 0.00188942
14 *23:28 *27:10 0
15 *23:28 *40:22 0
16 bn0 *23:28 0
17 bn1 *23:28 0
18 *3:18 *23:16 0
19 *3:30 *23:24 0
20 *5:32 *23:24 0
21 *7:24 *23:16 0
*RES
1 *1186:X *23:12 41.2669 
2 *23:12 *23:16 34.3788 
3 *23:16 *23:24 44.5629 
4 *23:24 *23:28 36.171 
5 *23:28 busy 25.6753 
*END

*D_NET *24 0.0107848
*CONN
*P clk I
*I *1016:A I *D sg13cmos5l_buf_8
*CAP
1 clk 0.0019966
2 *1016:A 0.000107605
3 *24:38 0.00107931
4 *24:26 0.00328821
5 *24:12 0.0043131
6 *1016:A *384:23 0
7 *1016:A *449:14 0
8 *24:26 *823:A1 0
9 *24:26 *823:A2 0
10 *24:26 *831:A 0
11 *24:26 *832:A_N 0
12 *24:26 *838:B 0
13 *24:26 *843:A2 0
14 *24:26 *969:D 0
15 *24:26 *976:CLK 0
16 *24:26 *980:D 0
17 *24:26 *1116:A 0
18 *24:26 *1125:A 0
19 *24:26 *135:58 0
20 *24:26 *135:117 0
21 *24:26 *146:12 0
22 *24:26 *147:10 0
23 *24:26 *148:30 0
24 *24:26 *328:6 0
25 *24:26 *387:12 0
26 *24:26 *387:21 0
27 *24:26 *395:32 0
28 *24:26 *395:88 0
29 *24:26 *445:12 0
30 *24:38 *125:12 0
31 *24:38 *126:12 0
32 *24:38 *128:12 0
33 *24:38 *170:14 0
34 *24:38 *384:21 0
35 *24:38 *391:103 0
36 *24:38 *449:26 0
*RES
1 clk *24:12 45.5852 
2 *24:12 *24:26 43.484 
3 *24:26 *24:38 29.9704 
4 *24:38 *1016:A 20.9682 
*END

*D_NET *25 0.0107802
*CONN
*P code0 O
*I *1187:X O *D sg13cmos5l_buf_1
*CAP
1 code0 0.000498582
2 *1187:X 0.00180435
3 *25:16 0.000835187
4 *25:10 0.00214095
5 *25:10 *919:A 0.000208222
6 *25:10 *919:B 0.000143893
7 *25:10 *1013:CLK 0.0004989
8 *25:10 *1020:A 0
9 *25:10 *1188:A 0
10 *25:10 *1189:A 6.49135e-05
11 *25:10 *26:18 0
12 *25:10 *27:10 0
13 *25:10 *254:63 0
14 *25:10 *263:38 0.000177109
15 *25:10 *263:53 0
16 *25:10 *421:12 0.000628715
17 bn1 *25:16 0.00188992
18 *5:32 *25:10 0
19 *23:24 *25:10 0
20 *23:28 *25:16 0.00188942
*RES
1 *1187:X *25:10 38.1074 
2 *25:10 *25:16 48.755 
3 *25:16 code0 5.8916 
*END

*D_NET *26 0.0059865
*CONN
*P code1 O
*I *1188:X O *D sg13cmos5l_buf_1
*CAP
1 code1 0.000552881
2 *1188:X 0.000125697
3 *26:18 0.00222124
4 *26:10 0.00179405
5 *26:10 *1059:A 0.000128406
6 *26:10 *193:29 0
7 *26:10 *302:14 0.000342905
8 *26:10 *355:14 0
9 *26:10 *370:10 0
10 *26:18 *926:B 0
11 *26:18 *929:A2 0
12 *26:18 *994:RESET_B 0
13 *26:18 *995:D 0
14 *26:18 *1033:A 0.000144736
15 *26:18 *1168:A 0
16 *26:18 *1189:A 0
17 *26:18 *27:10 0
18 *26:18 *370:10 4.77425e-05
19 *26:18 *370:18 0
20 *26:18 *370:39 0.000628838
21 *26:18 *421:12 0
22 bn0 code1 0
23 *8:14 *26:18 0
24 *23:28 code1 0
25 *25:10 *26:18 0
*RES
1 *1188:X *26:10 41.9055 
2 *26:10 *26:18 36.0395 
3 *26:18 code1 46.6435 
*END

*D_NET *27 0.0025026
*CONN
*P code2 O
*I *1189:X O *D sg13cmos5l_buf_1
*CAP
1 code2 0.000360597
2 *1189:X 0.000890703
3 *27:10 0.0012513
4 bn0 *27:10 0
5 *23:28 *27:10 0
6 *25:10 *27:10 0
7 *26:18 *27:10 0
*RES
1 *1189:X *27:10 49.3215 
2 *27:10 code2 24.3775 
*END

*D_NET *28 0.00197985
*CONN
*P code3 O
*I *1190:X O *D sg13cmos5l_buf_1
*CAP
1 code3 0.000798864
2 *1190:X 0.000191063
3 *28:8 0.000989927
4 *28:8 *1155:A 0
5 *28:8 *314:10 0
6 *3:30 code3 0
*RES
1 *1190:X *28:8 41.8334 
2 *28:8 code3 29.5687 
*END

*D_NET *29 0.00221081
*CONN
*P code4 O
*I *1191:X O *D sg13cmos5l_buf_1
*CAP
1 code4 0.000800669
2 *1191:X 0.000106535
3 *29:8 0.000907204
4 *29:8 *30:10 0.000396398
*RES
1 *1191:X *29:8 41.8334 
2 *29:8 code4 29.785 
*END

*D_NET *30 0.00338889
*CONN
*P code5 O
*I *1192:X O *D sg13cmos5l_buf_1
*CAP
1 code5 0.000816892
2 *1192:X 0.000641746
3 *30:10 0.00145864
4 *30:10 *892:B1 0
5 *30:10 *986:CLK 0
6 *30:10 *1191:A 0
7 *30:10 *303:14 0
8 *30:10 *386:96 7.52149e-05
9 *29:8 *30:10 0.000396398
*RES
1 *1192:X *30:10 48.0855 
2 *30:10 code5 30.0013 
*END

*D_NET *31 0.00317201
*CONN
*P code6 O
*I *1193:X O *D sg13cmos5l_buf_1
*CAP
1 code6 0.000800669
2 *1193:X 0.000389187
3 *31:8 0.00118986
4 *31:8 *32:8 0.00018261
5 *31:8 *212:18 0
6 *31:8 *424:29 0.000609684
*RES
1 *1193:X *31:8 45.7886 
2 *31:8 code6 29.785 
*END

*D_NET *32 0.00202808
*CONN
*P code7 O
*I *1194:X O *D sg13cmos5l_buf_1
*CAP
1 code7 0.000784446
2 *1194:X 0.000138289
3 *32:8 0.000922735
4 *32:8 *424:29 0
5 *31:8 *32:8 0.00018261
*RES
1 *1194:X *32:8 41.8334 
2 *32:8 code7 29.5687 
*END

*D_NET *33 0.00163938
*CONN
*P code8 O
*I *1195:X O *D sg13cmos5l_buf_1
*CAP
1 code8 0.00081969
2 *1195:X 0.00081969
*RES
1 *1195:X code8 30.1352 
*END

*D_NET *34 0.00199903
*CONN
*P code9 O
*I *1196:X O *D sg13cmos5l_buf_1
*CAP
1 code9 0.000999513
2 *1196:X 0.000999513
3 code9 *1144:A 0
*RES
1 *1196:X code9 32.36 
*END

*D_NET *35 0.00117869
*CONN
*P comp I
*I *1144:A I *D sg13cmos5l_dlygate4sd3_1
*CAP
1 comp 0.000589346
2 *1144:A 0.000589346
3 *1144:A *1196:A 0
4 code9 *1144:A 0
*RES
1 comp *1144:A 46.9422 
*END

*D_NET *36 0.00225873
*CONN
*P comp_clk O
*I *1197:X O *D sg13cmos5l_buf_1
*CAP
1 comp_clk 0.000947554
2 *1197:X 0.000181809
3 *36:8 0.00112936
4 comp_clk *312:8 0
5 comp_clk *312:14 0
6 *36:8 *38:8 0
*RES
1 *1197:X *36:8 42.0497 
2 *36:8 comp_clk 12.3085 
*END

*D_NET *37 0.00100389
*CONN
*P rst_n I
*I *1160:A I *D sg13cmos5l_dlygate4sd3_1
*CAP
1 rst_n 0.000501947
2 *1160:A 0.000501947
3 *1160:A *349:10 0
*RES
1 rst_n *1160:A 46.077 
*END

*D_NET *38 0.00252299
*CONN
*P sample O
*I *1198:X O *D sg13cmos5l_buf_1
*CAP
1 sample 0.000863375
2 *1198:X 0.00039812
3 *38:8 0.0012615
4 *36:8 *38:8 0
*RES
1 *1198:X *38:8 44.6453 
2 *38:8 sample 11.3197 
*END

*D_NET *39 0.00106368
*CONN
*P start I
*I *1137:A I *D sg13cmos5l_dlygate4sd3_1
*CAP
1 start 0.000531841
2 *1137:A 0.000531841
3 *1137:A *1171:A 0
4 *1137:A *360:14 0
*RES
1 start *1137:A 46.5096 
*END

*D_NET *40 0.0113783
*CONN
*P valid O
*I *1199:X O *D sg13cmos5l_buf_1
*CAP
1 valid 0.000395833
2 *1199:X 0
3 *40:22 0.00153015
4 *40:18 0.00316846
5 *40:12 0.00286354
6 *40:6 0.000829396
7 *40:12 *186:18 0
8 *40:12 *186:24 0
9 *40:12 *198:16 0
10 *40:12 *303:26 0
11 *40:12 *342:18 0
12 *40:18 *927:A2 0
13 *40:18 *985:CLK 0.000658453
14 *40:18 *994:RESET_B 0.000584925
15 *40:18 *994:CLK 0
16 *40:18 *1108:A 0
17 *40:18 *73:8 0
18 *40:18 *101:12 8.0216e-05
19 *40:18 *254:167 0
20 *40:18 *258:8 0.000424217
21 *40:18 *400:87 0.000820569
22 *40:18 *419:25 2.25909e-05
23 bn0 *40:22 0
24 bn1 *40:22 0
25 *5:16 *40:12 0
26 *7:30 *40:18 0
27 *23:28 *40:22 0
*RES
1 *1199:X *40:6 40 
2 *40:6 *40:12 48.1061 
3 *40:12 *40:18 42.5776 
4 *40:18 *40:22 33.699 
5 *40:22 valid 24.8101 
*END

*D_NET *41 0.00248059
*CONN
*I *1053:A I *D sg13cmos5l_buf_1
*I *975:Q O *D sg13cmos5l_dfrbpq_1
*CAP
1 *1053:A 0
2 *975:Q 0.000555285
3 *41:12 0.000555285
4 *41:12 *852:A0 0
5 *41:12 *852:A1 0.000111951
6 *41:12 *42:22 0.00034349
7 *41:12 *391:10 0.000144822
8 *41:12 *391:25 0.000321238
9 *41:12 *392:10 0
10 *41:12 *401:32 0
11 *41:12 *438:10 0.000448514
*RES
1 *975:Q *41:12 46.5199 
2 *41:12 *1053:A 40 
*END

*D_NET *42 0.00892161
*CONN
*I *1129:A I *D sg13cmos5l_dlygate4sd3_1
*I *912:A I *D sg13cmos5l_nor4_1
*I *900:A I *D sg13cmos5l_and4_1
*I *879:A I *D sg13cmos5l_and4_1
*I *757:A I *D sg13cmos5l_inv_1
*I *908:A I *D sg13cmos5l_nor3_1
*I *978:Q O *D sg13cmos5l_dfrbpq_1
*CAP
1 *1129:A 5.6297e-05
2 *912:A 4.44998e-05
3 *900:A 0
4 *879:A 0.000193986
5 *757:A 0.000369561
6 *908:A 0
7 *978:Q 2.56615e-05
8 *42:33 0.00108053
9 *42:22 0.000685553
10 *42:16 0.000331191
11 *42:12 0.000765606
12 *42:6 0.000640444
13 *757:A *871:C 0
14 *757:A *885:A 0.000112426
15 *757:A *885:B 0
16 *757:A *206:59 0.00018128
17 *757:A *389:82 0
18 *757:A *391:55 0
19 *757:A *391:66 0
20 *757:A *437:20 0.000112426
21 *757:A *438:65 0.000181438
22 *879:A *890:B 0
23 *879:A *94:20 4.77425e-05
24 *912:A *171:8 0
25 *912:A *360:14 0.000128576
26 *1129:A *860:A1 0
27 *42:12 *856:A1 0
28 *42:12 *860:A1 0
29 *42:12 *54:10 0
30 *42:12 *171:10 0
31 *42:12 *179:16 0.000272939
32 *42:12 *360:14 0.000819599
33 *42:16 *900:B 0.00017628
34 *42:16 *1127:A 0
35 *42:16 *171:42 0.000208615
36 *42:22 *360:26 0
37 *42:22 *392:10 0.000448627
38 *42:22 *392:18 0.000181341
39 *42:22 *392:35 0.000130532
40 *42:22 *438:31 0.000183564
41 *42:33 *796:B_N 0
42 *42:33 *851:A2 8.00842e-05
43 *42:33 *895:B 0
44 *42:33 *202:10 7.64e-05
45 *42:33 *216:14 8.00842e-05
46 *42:33 *216:56 0.000352618
47 *42:33 *391:55 0.000610218
48 *42:33 *401:93 0
49 *42:33 *438:77 0
50 *41:12 *42:22 0.00034349
*RES
1 *978:Q *42:6 20.3502 
2 *42:6 *42:12 25.8607 
3 *42:12 *42:16 21.8334 
4 *42:16 *42:22 43.3166 
5 *42:22 *908:A 20 
6 *42:22 *42:33 25.7371 
7 *42:33 *757:A 44.1097 
8 *42:33 *879:A 41.7819 
9 *42:16 *900:A 20 
10 *42:12 *912:A 40.5974 
11 *42:6 *1129:A 20.6695 
*END

*D_NET *43 0.00264707
*CONN
*I *1080:A I *D sg13cmos5l_dlygate4sd3_1
*I *813:Y O *D sg13cmos5l_a21oi_1
*CAP
1 *1080:A 4.3703e-05
2 *813:Y 0.000511349
3 *43:8 0.000555052
4 *1080:A *815:B1 8.03089e-05
5 *1080:A *968:D 0
6 *43:8 *814:A 0.000319094
7 *43:8 *967:CLK 0
8 *43:8 *136:57 0
9 *43:8 *143:10 0
10 *43:8 *283:28 0.000849889
11 *43:8 *283:34 0.000287672
*RES
1 *813:Y *43:8 46.7774 
2 *43:8 *1080:A 40.5356 
*END

*D_NET *44 0.00378871
*CONN
*I *1082:A I *D sg13cmos5l_dlygate4sd3_1
*I *816:Y O *D sg13cmos5l_o21ai_1
*CAP
1 *1082:A 5.26331e-05
2 *816:Y 0.000523026
3 *44:12 0.000575659
4 *1082:A *758:A 0
5 *1082:A *790:A 4.79124e-05
6 *44:12 *810:A 0
7 *44:12 *816:B1 8.01773e-05
8 *44:12 *91:8 0.00108424
9 *44:12 *135:50 0.000125464
10 *44:12 *152:8 0.0012996
11 *44:12 *283:28 0
12 *44:12 *285:10 0
13 *44:12 *285:12 0
14 *44:12 *439:25 0
*RES
1 *816:Y *44:12 48.8683 
2 *44:12 *1082:A 40.6695 
*END

*D_NET *45 0.000582521
*CONN
*I *1116:A I *D sg13cmos5l_dlygate4sd3_1
*I *823:Y O *D sg13cmos5l_a21oi_1
*CAP
1 *1116:A 7.37716e-05
2 *823:Y 0.000217489
3 *45:8 0.00029126
4 *1116:A *813:A2 0
5 *45:8 *135:64 0
6 *45:8 *146:12 0
7 *45:8 *147:10 0
8 *45:8 *323:36 0
9 *24:26 *1116:A 0
*RES
1 *823:Y *45:8 42.3278 
2 *45:8 *1116:A 40.7519 
*END

*D_NET *46 0.0027947
*CONN
*I *970:D I *D sg13cmos5l_dfrbpq_1
*I *829:X O *D sg13cmos5l_or2_1
*CAP
1 *970:D 0
2 *829:X 0.000562401
3 *46:10 0.000562401
4 *46:10 *790:A 0
5 *46:10 *829:A 0.000241924
6 *46:10 *89:12 0.000287256
7 *46:10 *110:10 0.00114071
8 *46:10 *290:16 0
*RES
1 *829:X *46:10 46.9113 
2 *46:10 *970:D 40 
*END

*D_NET *47 0.000709191
*CONN
*I *971:D I *D sg13cmos5l_dfrbpq_1
*I *835:Y O *D sg13cmos5l_a21oi_1
*CAP
1 *971:D 0.000107894
2 *835:Y 0.00015043
3 *47:8 0.000258324
4 *971:D *831:B 0
5 *971:D *159:10 1.54008e-05
6 *971:D *334:8 0.000177142
7 *971:D *395:32 0
8 *47:8 *159:10 0
9 *47:8 *334:30 0
10 *47:8 *395:32 0
*RES
1 *835:Y *47:8 41.339 
2 *47:8 *971:D 41.1845 
*END

*D_NET *48 0.00160871
*CONN
*I *1124:A I *D sg13cmos5l_dlygate4sd3_1
*I *839:Y O *D sg13cmos5l_a22oi_1
*CAP
1 *1124:A 0.000241888
2 *839:Y 0.000292003
3 *48:8 0.00053389
4 *1124:A *834:A 0
5 *1124:A *840:D 0.000145031
6 *1124:A *162:10 0
7 *1124:A *443:8 0
8 *48:8 *157:14 0
9 *48:8 *162:10 0.000395897
10 *48:8 *332:30 0
11 *48:8 *443:12 0
*RES
1 *839:Y *48:8 43.811 
2 *48:8 *1124:A 42.266 
*END

*D_NET *49 0.000168259
*CONN
*I *1122:A I *D sg13cmos5l_dlygate4sd3_1
*I *844:X O *D sg13cmos5l_and2_1
*CAP
1 *1122:A 8.41296e-05
2 *844:X 8.41296e-05
3 *1122:A *973:CLK 0
4 *1122:A *329:10 0
*RES
1 *844:X *1122:A 40.9167 
*END

*D_NET *50 0.000819554
*CONN
*I *1119:A I *D sg13cmos5l_dlygate4sd3_1
*I *846:X O *D sg13cmos5l_a21o_1
*CAP
1 *1119:A 0.000244616
2 *846:X 0.000165162
3 *50:8 0.000409777
4 *1119:A *840:A 0
5 *1119:A *165:8 0
6 *1119:A *255:8 0
7 *1119:A *255:12 0
8 *50:8 *169:10 0
9 *50:8 *395:69 0
*RES
1 *846:X *50:8 41.5862 
2 *50:8 *1119:A 42.266 
*END

*D_NET *51 0.00101743
*CONN
*I *975:D I *D sg13cmos5l_dfrbpq_1
*I *849:X O *D sg13cmos5l_mux2_1
*CAP
1 *975:D 0.000169944
2 *849:X 0.000185189
3 *51:8 0.000355132
4 *975:D *255:52 0.000307166
5 *975:D *401:17 0
6 *51:8 *255:52 0
7 *51:8 *255:76 0
8 *51:8 *401:32 0
*RES
1 *849:X *51:8 42.0806 
2 *51:8 *975:D 42.0497 
*END

*D_NET *52 0.000283615
*CONN
*I *976:D I *D sg13cmos5l_dfrbpq_1
*I *852:X O *D sg13cmos5l_mux2_1
*CAP
1 *976:D 9.4224e-05
2 *852:X 9.4224e-05
3 *976:D *850:A_N 0
4 *976:D *1052:A 7.97661e-05
5 *976:D *391:10 0
6 *976:D *391:25 0
7 *976:D *395:88 1.54008e-05
*RES
1 *852:X *976:D 41.133 
*END

*D_NET *53 0.0011636
*CONN
*I *1128:A I *D sg13cmos5l_dlygate4sd3_1
*I *856:Y O *D sg13cmos5l_o21ai_1
*CAP
1 *1128:A 0
2 *856:Y 0.000251023
3 *53:8 0.000251023
4 *53:8 *856:A1 0
5 *53:8 *1054:A 0
6 *53:8 *360:14 0.000661558
*RES
1 *856:Y *53:8 43.0694 
2 *53:8 *1128:A 40 
*END

*D_NET *54 0.00152495
*CONN
*I *978:D I *D sg13cmos5l_dfrbpq_1
*I *860:X O *D sg13cmos5l_a21o_1
*CAP
1 *978:D 0
2 *860:X 0.000762477
3 *54:10 0.000762477
4 *54:10 *909:A 0
5 *54:10 *216:56 0
6 *54:10 *219:54 0
7 *54:10 *255:62 0
8 *54:10 *387:44 0
9 *42:12 *54:10 0
*RES
1 *860:X *54:10 47.6529 
2 *54:10 *978:D 40 
*END

*D_NET *55 0.00199519
*CONN
*I *1069:A I *D sg13cmos5l_dlygate4sd3_1
*I *864:Y O *D sg13cmos5l_o21ai_1
*CAP
1 *1069:A 0.000162979
2 *864:Y 0.000473478
3 *55:10 0.000636457
4 *1069:A *966:B 0.000209796
5 *1069:A *109:12 0
6 *1069:A *250:10 1.54556e-05
7 *1069:A *385:66 0
8 *55:10 *790:A 0.000144162
9 *55:10 *864:B1 7.9556e-05
10 *55:10 *864:A2 0.000144899
11 *55:10 *966:A 0
12 *55:10 *108:18 0
13 *55:10 *109:12 0
14 *55:10 *447:8 0.000128408
*RES
1 *864:Y *55:10 45.3972 
2 *55:10 *1069:A 41.8334 
*END

*D_NET *56 0.000556005
*CONN
*I *980:D I *D sg13cmos5l_dfrbpq_1
*I *866:X O *D sg13cmos5l_a21o_1
*CAP
1 *980:D 0.000278003
2 *866:X 0.000278003
3 *980:D *865:B1 0
4 *980:D *976:CLK 0
5 *980:D *148:30 0
6 *24:26 *980:D 0
*RES
1 *866:X *980:D 42.9561 
*END

*D_NET *57 0.000803964
*CONN
*I *981:D I *D sg13cmos5l_dfrbpq_1
*I *867:Y O *D sg13cmos5l_nand2_1
*CAP
1 *981:D 0.000138704
2 *867:Y 0.000121716
3 *57:8 0.00026042
4 *981:D *1037:A 0
5 *981:D *388:37 0.00020758
6 *57:8 *867:A 7.55443e-05
7 *57:8 *1176:A 0
8 *57:8 *206:16 0
*RES
1 *867:Y *57:8 41.0918 
2 *57:8 *981:D 41.4008 
*END

*D_NET *58 0.000929699
*CONN
*I *1146:A I *D sg13cmos5l_dlygate4sd3_1
*I *869:Y O *D sg13cmos5l_o21ai_1
*CAP
1 *1146:A 0
2 *869:Y 0.000122102
3 *58:10 0.000122102
4 *58:10 *178:8 0
5 *58:10 *184:8 0.000289271
6 *58:10 *213:24 0.000396224
*RES
1 *869:Y *58:10 42.1527 
2 *58:10 *1146:A 40 
*END

*D_NET *59 0.000790347
*CONN
*I *1063:A I *D sg13cmos5l_dlygate4sd3_1
*I *878:Y O *D sg13cmos5l_nand2_1
*CAP
1 *1063:A 0.000395173
2 *878:Y 0.000395173
3 *1063:A *887:A2 0
4 *1063:A *199:10 0
5 *1063:A *314:24 0
6 *1063:A *321:24 0
7 *7:18 *1063:A 0
*RES
1 *878:Y *1063:A 43.8419 
*END

*D_NET *60 0.00136698
*CONN
*I *1156:A I *D sg13cmos5l_dlygate4sd3_1
*I *884:Y O *D sg13cmos5l_o21ai_1
*CAP
1 *1156:A 0.000418222
2 *884:Y 0.000418222
3 *1156:A *884:B1 0
4 *1156:A *884:A2 0
5 *1156:A *1064:A 0
6 *1156:A *394:92 0
7 *6:14 *1156:A 0.000530542
*RES
1 *884:Y *1156:A 44.1612 
*END

*D_NET *61 0.00156979
*CONN
*I *1149:A I *D sg13cmos5l_dlygate4sd3_1
*I *889:Y O *D sg13cmos5l_o21ai_1
*CAP
1 *1149:A 0.000367314
2 *889:Y 0.000367314
3 *1149:A *889:B1 0.000240328
4 *1149:A *986:RESET_B 0
5 *1149:A *1152:A 0
6 *1149:A *204:10 0.00059483
*RES
1 *889:Y *1149:A 43.9964 
*END

*D_NET *62 0.00220126
*CONN
*I *1065:A I *D sg13cmos5l_dlygate4sd3_1
*I *894:Y O *D sg13cmos5l_o21ai_1
*CAP
1 *1065:A 0
2 *894:Y 0.000489103
3 *62:10 0.000489103
4 *62:10 *882:A 0
5 *62:10 *892:A2 1.54008e-05
6 *62:10 *101:12 0.000234726
7 *62:10 *204:10 0.00059483
8 *62:10 *303:45 0.000234726
9 *62:10 *390:34 0
10 *62:10 *419:25 0.000143374
*RES
1 *894:Y *62:10 45.5208 
2 *62:10 *1065:A 40 
*END

*D_NET *63 0.00132789
*CONN
*I *1153:A I *D sg13cmos5l_dlygate4sd3_1
*I *899:Y O *D sg13cmos5l_o21ai_1
*CAP
1 *1153:A 0.000640019
2 *899:Y 0.000640019
3 *1153:A *899:B1 4.78556e-05
4 *1153:A *901:B 0
5 *1153:A *987:RESET_B 0
6 *1153:A *987:D 0
7 *1153:A *1151:A 0
8 *1153:A *1157:A 0
9 *1153:A *211:10 0
10 *1153:A *257:10 0
11 *1153:A *257:74 0
12 *1153:A *303:45 0
13 *1153:A *425:8 0
*RES
1 *899:Y *1153:A 46.7924 
*END

*D_NET *64 0.000842393
*CONN
*I *1159:A I *D sg13cmos5l_dlygate4sd3_1
*I *903:Y O *D sg13cmos5l_o21ai_1
*CAP
1 *1159:A 0.000381178
2 *903:Y 0.000381178
3 *1159:A *903:B1 8.00375e-05
4 *1159:A *906:B1 0
5 *1159:A *257:22 0
6 *1159:A *430:14 0
*RES
1 *903:Y *1159:A 44.1612 
*END

*D_NET *65 0.0015622
*CONN
*I *1151:A I *D sg13cmos5l_dlygate4sd3_1
*I *907:Y O *D sg13cmos5l_o21ai_1
*CAP
1 *1151:A 0.00063156
2 *907:Y 0.00063156
3 *1151:A *899:B1 0
4 *1151:A *914:A1 0
5 *1151:A *1166:A 0
6 *1151:A *190:31 0.000283679
7 *1151:A *209:25 0
8 *1151:A *257:10 1.54008e-05
9 *1151:A *263:16 0
10 *1151:A *263:26 0
11 *1151:A *425:8 0
12 *1153:A *1151:A 0
*RES
1 *907:Y *1151:A 46.8954 
*END

*D_NET *66 0.00149032
*CONN
*I *1164:A I *D sg13cmos5l_dlygate4sd3_1
*I *911:Y O *D sg13cmos5l_o21ai_1
*CAP
1 *1164:A 5.79495e-05
2 *911:Y 0.000362277
3 *66:16 0.000420227
4 *66:16 *907:B1 0.000447428
5 *66:16 *205:22 7.92547e-05
6 *66:16 *394:44 0
7 *66:16 *424:14 4.7813e-05
8 *66:16 *432:8 7.5374e-05
*RES
1 *911:Y *66:16 44.0376 
2 *66:16 *1164:A 40.5356 
*END

*D_NET *67 0.00211558
*CONN
*I *1167:A I *D sg13cmos5l_dlygate4sd3_1
*I *916:Y O *D sg13cmos5l_o21ai_1
*CAP
1 *1167:A 0.000718738
2 *916:Y 0.000718738
3 *1167:A *916:B1 0.000403912
4 *1167:A *989:D 0
5 *1167:A *218:12 0.000274189
6 *1167:A *263:16 0
7 *1167:A *263:26 0
8 *1167:A *424:14 0
9 *1167:A *434:10 0
*RES
1 *916:Y *1167:A 47.004 
*END

*D_NET *68 0.00243147
*CONN
*I *992:D I *D sg13cmos5l_dfrbpq_1
*I *923:Y O *D sg13cmos5l_a21oi_1
*CAP
1 *992:D 0.000804126
2 *923:Y 0.000804126
3 *992:D *923:A1 0
4 *992:D *1083:A 0
5 *992:D *97:22 0
6 *992:D *261:72 0.000823222
7 *992:D *288:6 0
*RES
1 *923:Y *992:D 48.0752 
*END

*D_NET *69 0.00442471
*CONN
*I *1104:A I *D sg13cmos5l_dlygate4sd3_1
*I *925:Y O *D sg13cmos5l_a21oi_1
*CAP
1 *1104:A 0
2 *925:Y 0.000253348
3 *69:16 0.000921139
4 *69:10 0.00117449
5 *69:10 *929:A1 0
6 *69:10 *994:RESET_B 0.000112426
7 *69:10 *995:CLK 8.00842e-05
8 *69:10 *73:8 0
9 *69:10 *370:18 0
10 *69:16 *993:CLK 0.000241429
11 *69:16 *995:CLK 0.000606693
12 *69:16 *97:14 0
13 *69:16 *262:19 0.0010351
14 *69:16 *311:10 0
*RES
1 *925:Y *69:10 42.3999 
2 *69:10 *69:16 31.1137 
3 *69:16 *1104:A 20 
*END

*D_NET *70 0.000642206
*CONN
*I *1108:A I *D sg13cmos5l_dlygate4sd3_1
*I *927:Y O *D sg13cmos5l_a21oi_1
*CAP
1 *1108:A 5.92919e-05
2 *927:Y 0.000117889
3 *70:8 0.000177181
4 *1108:A *927:A2 0
5 *70:8 *73:12 0
6 *70:8 *100:8 0.000287845
7 *40:18 *1108:A 0
*RES
1 *927:Y *70:8 41.339 
2 *70:8 *1108:A 40.5356 
*END

*D_NET *71 0.00172968
*CONN
*I *1114:A I *D sg13cmos5l_dlygate4sd3_1
*I *929:Y O *D sg13cmos5l_a21oi_1
*CAP
1 *1114:A 0.000381915
2 *929:Y 0.000381915
3 *1114:A *929:A1 0.000434272
4 *1114:A *994:RESET_B 0
5 *1114:A *994:D 0
6 *1114:A *370:39 0.000531582
*RES
1 *929:Y *1114:A 44.6556 
*END

*D_NET *72 0.00291576
*CONN
*I *1098:A I *D sg13cmos5l_dlygate4sd3_1
*I *931:Y O *D sg13cmos5l_a21oi_1
*CAP
1 *1098:A 0.000142085
2 *931:Y 0.000502634
3 *72:8 0.000644718
4 *1098:A *993:RESET_B 0
5 *1098:A *262:15 0.000207986
6 *72:8 *254:145 0
7 *72:8 *304:10 0.000288087
8 *72:8 *321:14 0.00012816
9 *72:8 *321:24 0.000554492
10 *72:8 *399:56 0.000447598
11 bn5 *72:8 0
12 *7:30 *72:8 0
*RES
1 *931:Y *72:8 46.283 
2 *72:8 *1098:A 41.4008 
*END

*D_NET *73 0.00564417
*CONN
*I *1102:A I *D sg13cmos5l_dlygate4sd3_1
*I *933:Y O *D sg13cmos5l_a21oi_1
*CAP
1 *1102:A 0
2 *933:Y 0.000824457
3 *73:12 0.00100236
4 *73:8 0.00182682
5 *73:8 *925:A2 0.000270338
6 *73:8 *929:A1 0
7 *73:8 *994:RESET_B 0.000338245
8 *73:8 *101:12 0
9 *73:8 *372:102 0.000144767
10 *73:8 *372:117 0.000160447
11 *73:12 *97:14 0
12 *73:12 *100:8 0
13 *73:12 *311:10 0.000395568
14 *73:12 *342:12 0
15 *73:12 *370:39 0.000552831
16 *73:12 *382:8 0.000128334
17 *40:18 *73:8 0
18 *69:10 *73:8 0
19 *70:8 *73:12 0
*RES
1 *933:Y *73:8 47.4572 
2 *73:8 *73:12 30.4854 
3 *73:12 *1102:A 20 
*END

*D_NET *74 0.00109059
*CONN
*I *1093:A I *D sg13cmos5l_dlygate4sd3_1
*I *935:Y O *D sg13cmos5l_a21oi_1
*CAP
1 *1093:A 0
2 *935:Y 0.000417542
3 *74:10 0.000417542
4 *74:10 *103:22 0.000208079
5 *74:10 *372:117 4.74263e-05
6 *74:10 *399:74 0
7 bn5 *74:10 0
*RES
1 *935:Y *74:10 44.223 
2 *74:10 *1093:A 40 
*END

*D_NET *75 0.00116574
*CONN
*I *1071:A I *D sg13cmos5l_dlygate4sd3_1
*I *937:Y O *D sg13cmos5l_a21oi_1
*CAP
1 *1071:A 4.96871e-05
2 *937:Y 0.000177125
3 *75:8 0.000226812
4 *1071:A *377:25 8.00842e-05
5 *75:8 *223:35 0.000129681
6 *75:8 *225:18 0
7 *75:8 *298:37 0.000502349
*RES
1 *937:Y *75:8 42.3278 
2 *75:8 *1071:A 40.5356 
*END

*D_NET *76 0.00200373
*CONN
*I *1084:A I *D sg13cmos5l_dlygate4sd3_1
*I *939:Y O *D sg13cmos5l_a21oi_1
*CAP
1 *1084:A 0.000262649
2 *939:Y 0.000207763
3 *76:10 0.000470411
4 *1084:A *1031:A 0
5 *1084:A *103:14 0
6 *1084:A *399:31 0
7 *76:10 *273:35 0.00055613
8 *76:10 *354:36 0.000111601
9 *76:10 *399:29 0
10 bn8 *76:10 0.000395177
11 *10:10 *1084:A 0
*RES
1 *939:Y *76:10 43.3269 
2 *76:10 *1084:A 41.8714 
*END

*D_NET *77 0.00269184
*CONN
*I *1075:A I *D sg13cmos5l_dlygate4sd3_1
*I *941:Y O *D sg13cmos5l_a21oi_1
*CAP
1 *1075:A 0.00015974
2 *941:Y 0.000564219
3 *77:8 0.000723959
4 *1075:A *1002:RESET_B 0
5 *1075:A *1173:A 0
6 *77:8 *273:16 0.000127963
7 *77:8 *296:45 0
8 *77:8 *370:100 0.000825923
9 *77:8 *370:113 0
10 *77:8 *380:90 0.000290036
11 *77:8 *381:24 0
12 *77:8 *381:28 0
*RES
1 *941:Y *77:8 47.0246 
2 *77:8 *1075:A 41.4008 
*END

*D_NET *78 0.00356783
*CONN
*I *1002:D I *D sg13cmos5l_dfrbpq_1
*I *942:Y O *D sg13cmos5l_a21oi_1
*CAP
1 *1002:D 4.42405e-05
2 *942:Y 0.000740964
3 *78:18 0.000785205
4 *1002:D *1003:D 4.74263e-05
5 *1002:D *354:36 0
6 *78:18 *953:C 0.000152411
7 *78:18 *79:8 7.65627e-05
8 *78:18 *105:24 0
9 *78:18 *106:20 1.55212e-05
10 *78:18 *202:60 0
11 *78:18 *210:24 0.000128565
12 *78:18 *216:34 0.000502606
13 *78:18 *240:28 0
14 *78:18 *241:8 0.000818937
15 *78:18 *261:20 0
16 *78:18 *373:48 0.000175513
17 *11:10 *1002:D 7.98779e-05
*RES
1 *942:Y *78:18 49.4554 
2 *78:18 *1002:D 40.5356 
*END

*D_NET *79 0.0023176
*CONN
*I *1100:A I *D sg13cmos5l_dlygate4sd3_1
*I *944:Y O *D sg13cmos5l_a21oi_1
*CAP
1 *1100:A 5.93447e-05
2 *944:Y 0.000470486
3 *79:8 0.000529831
4 *1100:A *216:34 0.000112651
5 *1100:A *245:28 0.000112651
6 *79:8 *238:16 0.000774796
7 *79:8 *369:97 0
8 *13:22 *79:8 0.000181279
9 *78:18 *79:8 7.65627e-05
*RES
1 *944:Y *79:8 45.7886 
2 *79:8 *1100:A 40.7519 
*END

*D_NET *80 0.00328942
*CONN
*I *1095:A I *D sg13cmos5l_dlygate4sd3_1
*I *946:Y O *D sg13cmos5l_a21oi_1
*CAP
1 *1095:A 0.000332046
2 *946:Y 0.000638636
3 *80:10 0.000970682
4 *1095:A *246:14 0.000532804
5 *1095:A *372:12 0
6 *1095:A *407:16 0.00024217
7 *80:10 *946:A1 0.000272933
8 *80:10 *1012:RESET_B 8.0216e-05
9 *80:10 *228:8 0
10 *80:10 *256:101 0
11 *80:10 *273:24 7.65627e-05
12 *80:10 *354:10 0
13 *80:10 *369:89 0.000143374
*RES
1 *946:Y *80:10 45.6444 
2 *80:10 *1095:A 43.5638 
*END

*D_NET *81 0.00505407
*CONN
*I *1086:A I *D sg13cmos5l_dlygate4sd3_1
*I *948:Y O *D sg13cmos5l_a21oi_1
*CAP
1 *1086:A 0.000480334
2 *948:Y 0.000474261
3 *81:12 0.000954594
4 *1086:A *1085:A 0
5 *1086:A *1099:A 0.000598053
6 *1086:A *278:16 0.000824774
7 *81:12 *773:A 0.000873809
8 *81:12 *948:B1 0
9 *81:12 *103:14 8.00842e-05
10 *81:12 *260:10 0
11 *81:12 *278:20 0.000267946
12 *81:12 *300:39 0.000500214
13 bp4 *81:12 0
*RES
1 *948:Y *81:12 46.9216 
2 *81:12 *1086:A 45.7268 
*END

*D_NET *82 0.00259883
*CONN
*I *1088:A I *D sg13cmos5l_dlygate4sd3_1
*I *950:Y O *D sg13cmos5l_a21oi_1
*CAP
1 *1088:A 4.17181e-05
2 *950:Y 0.000500595
3 *82:8 0.000542313
4 *1088:A *1198:A 8.02431e-05
5 *1088:A *246:14 8.03692e-05
6 *82:8 *107:8 0.00135359
7 *82:8 *254:107 0
8 *82:8 *254:127 0
*RES
1 *950:Y *82:8 46.283 
2 *82:8 *1088:A 40.5356 
*END

*D_NET *83 0.00113065
*CONN
*I *1110:A I *D sg13cmos5l_dlygate4sd3_1
*I *952:Y O *D sg13cmos5l_a21oi_1
*CAP
1 *1110:A 0.000162293
2 *952:Y 0.000281931
3 *83:8 0.000444224
4 *1110:A *246:14 0
5 *1110:A *396:36 0.000242203
6 *83:8 *242:16 0
7 *83:8 *369:12 0
*RES
1 *952:Y *83:8 42.8222 
2 *83:8 *1110:A 41.6171 
*END

*D_NET *84 0.0044064
*CONN
*I *1090:A I *D sg13cmos5l_dlygate4sd3_1
*I *954:Y O *D sg13cmos5l_a21oi_1
*CAP
1 *1090:A 0.000891782
2 *954:Y 0.000619846
3 *84:12 0.00151163
4 *1090:A *1005:CLK 0
5 *1090:A *105:8 0
6 *1090:A *260:14 0
7 *1090:A *260:25 0.000307057
8 *1090:A *278:41 0
9 *1090:A *369:36 0
10 *1090:A *369:44 0.00024217
11 *84:12 *954:B1 0.00024074
12 *84:12 *1011:CLK 8.01776e-05
13 *84:12 *1073:A 0
14 *84:12 *1131:A 0.000240328
15 *84:12 *105:16 0
16 *84:12 *260:33 0.00027267
17 *19:10 *84:12 0
18 *21:10 *84:12 0
*RES
1 *954:Y *84:12 46.18 
2 *84:12 *1090:A 48.4357 
*END

*D_NET *85 0.00252518
*CONN
*I *1112:A I *D sg13cmos5l_dlygate4sd3_1
*I *956:Y O *D sg13cmos5l_a21oi_1
*CAP
1 *1112:A 0
2 *956:Y 0.000433293
3 *85:10 0.000433293
4 *85:10 *956:A2 0
5 *85:10 *300:39 0.00097974
6 *85:10 *305:26 0
7 *85:10 *369:89 0.000176482
8 *85:10 *409:10 0.000502371
*RES
1 *956:Y *85:10 46.1697 
2 *85:10 *1112:A 40 
*END

*D_NET *86 0.00028351
*CONN
*I *1106:A I *D sg13cmos5l_dlygate4sd3_1
*I *958:Y O *D sg13cmos5l_a21oi_1
*CAP
1 *1106:A 0.000101713
2 *958:Y 0.000101713
3 *1106:A *292:14 8.00842e-05
*RES
1 *958:Y *1106:A 41.133 
*END

*D_NET *87 0.00221466
*CONN
*I *1073:A I *D sg13cmos5l_dlygate4sd3_1
*I *960:Y O *D sg13cmos5l_a21oi_1
*CAP
1 *1073:A 0.000139154
2 *960:Y 0.000579178
3 *87:12 0.000718332
4 *1073:A *952:A1 0.000208195
5 *1073:A *105:16 4.78192e-05
6 *87:12 *1032:A 0
7 *87:12 *112:10 0
8 *87:12 *245:42 0.000234311
9 *87:12 *246:14 0
10 *87:12 *277:10 0.000287672
11 *84:12 *1073:A 0
*RES
1 *960:Y *87:12 45.7165 
2 *87:12 *1073:A 41.4008 
*END

*D_NET *88 0.00319563
*CONN
*I *1140:A I *D sg13cmos5l_dlygate4sd3_1
*I *964:Y O *D sg13cmos5l_nand2_1
*CAP
1 *1140:A 0
2 *964:Y 0.000237396
3 *88:16 0.000688178
4 *88:8 0.000925574
5 *88:8 *1176:A 0
6 *88:8 *134:10 0.000446908
7 *88:16 *98:14 0
8 *88:16 *254:79 0
9 *88:16 *407:16 7.58771e-05
10 *13:12 *88:8 0.0008217
*RES
1 *964:Y *88:8 43.811 
2 *88:8 *88:16 45.8607 
3 *88:16 *1140:A 40 
*END

*D_NET *89 0.00408473
*CONN
*I *1143:A I *D sg13cmos5l_dlygate4sd3_1
*I *966:Y O *D sg13cmos5l_nand3_1
*CAP
1 *1143:A 0.000435655
2 *966:Y 0.000493762
3 *89:12 0.000929417
4 *1143:A *773:A 0
5 *1143:A *1014:CLK 0.000306531
6 *1143:A *106:20 0
7 *1143:A *246:14 0
8 *1143:A *369:89 0
9 *89:12 *948:A1 0
10 *89:12 *966:B 0
11 *89:12 *966:C 0.000306919
12 *89:12 *110:10 0
13 *89:12 *290:16 0.000824167
14 *89:12 *310:20 0.000129186
15 *89:12 *396:50 0
16 *89:12 *398:68 0.000339491
17 *89:12 *398:87 3.23417e-05
18 *89:12 *440:12 0
19 *46:10 *89:12 0.000287256
*RES
1 *966:Y *89:12 46.8907 
2 *89:12 *1143:A 44.6247 
*END

*D_NET *90 0.00480319
*CONN
*I *1013:D I *D sg13cmos5l_dfrbpq_1
*I *788:Y O *D sg13cmos5l_inv_1
*CAP
1 *1013:D 0
2 *788:Y 0.00200232
3 *90:18 0.00200232
4 *90:18 *858:A 0
5 *90:18 *881:A2 0
6 *90:18 *981:CLK 0
7 *90:18 *982:D 0
8 *90:18 *1062:A 5.7368e-05
9 *90:18 *1190:A 0
10 *90:18 *195:12 0
11 *90:18 *302:14 0
12 *90:18 *307:14 0
13 *90:18 *344:16 1.54008e-05
14 *90:18 *384:52 0
15 *90:18 *385:31 0
16 *90:18 *400:16 0
17 *90:18 *400:27 0
18 *90:18 *400:33 0.000208142
19 *90:18 *400:46 0.000240027
20 *90:18 *413:10 0.000208058
21 *3:30 *90:18 0
22 *23:12 *90:18 6.95576e-05
*RES
1 *788:Y *90:18 38.3649 
2 *90:18 *1013:D 20 
*END

*D_NET *91 0.00200307
*CONN
*I *816:A1 I *D sg13cmos5l_o21ai_1
*I *758:Y O *D sg13cmos5l_inv_1
*CAP
1 *816:A1 0
2 *758:Y 0.00042185
3 *91:8 0.00042185
4 *91:8 *135:28 0
5 *91:8 *285:12 0
6 *91:8 *439:25 7.51285e-05
7 *44:12 *91:8 0.00108424
*RES
1 *758:Y *91:8 45.047 
2 *91:8 *816:A1 40 
*END

*D_NET *92 0.00034184
*CONN
*I *839:A1 I *D sg13cmos5l_a22oi_1
*I *759:Y O *D sg13cmos5l_inv_1
*CAP
1 *839:A1 0.00017092
2 *759:Y 0.00017092
3 *839:A1 *759:A 0
4 *839:A1 *839:A2 0
5 *839:A1 *332:6 0
*RES
1 *759:Y *839:A1 41.4008 
*END

*D_NET *93 0.00064668
*CONN
*I *843:B1 I *D sg13cmos5l_o21ai_1
*I *760:Y O *D sg13cmos5l_inv_1
*CAP
1 *843:B1 3.53628e-05
2 *760:Y 4.60526e-05
3 *93:8 8.14154e-05
4 *843:B1 *843:A2 1.54008e-05
5 *93:8 *139:10 0.000234224
6 *93:8 *328:21 0.000234224
*RES
1 *760:Y *93:8 41.0918 
2 *93:8 *843:B1 40.3193 
*END

*D_NET *94 0.00451968
*CONN
*I *893:B I *D sg13cmos5l_nand3_1
*I *875:B I *D sg13cmos5l_nand3b_1
*I *885:C I *D sg13cmos5l_nor4_1
*I *904:C I *D sg13cmos5l_nor4_1
*I *761:Y O *D sg13cmos5l_inv_1
*CAP
1 *893:B 0.000341765
2 *875:B 0.000143225
3 *885:C 0.000179535
4 *904:C 3.89157e-05
5 *761:Y 0.000197724
6 *94:20 0.000544391
7 *94:12 0.000469166
8 *94:10 0.000539489
9 *875:B *321:34 0.000144768
10 *875:B *321:42 0
11 *875:B *392:84 0
12 *875:B *411:35 4.77425e-05
13 *885:C *879:D 0.000181192
14 *885:C *885:B 0
15 *885:C *95:50 0.000161219
16 *885:C *302:28 0.00066244
17 *885:C *391:66 0
18 *893:B *893:C 8.00842e-05
19 *893:B *193:10 0
20 *893:B *384:73 0
21 *893:B *390:10 0
22 *904:C *95:41 7.49794e-05
23 *904:C *95:50 7.49823e-05
24 *904:C *302:28 7.6403e-05
25 *94:10 *384:73 0
26 *94:10 *390:10 0
27 *94:10 *390:23 0.00011236
28 *94:10 *392:84 0
29 *94:20 *764:A 0.0002736
30 *94:20 *193:10 0
31 *94:20 *321:42 4.78688e-05
32 *94:20 *390:10 0
33 *94:20 *392:84 0
34 *879:A *94:20 4.77425e-05
35 *6:14 *893:B 8.00842e-05
*RES
1 *761:Y *94:10 41.8437 
2 *94:10 *94:12 20 
3 *94:12 *94:20 23.3681 
4 *94:20 *904:C 40.5974 
5 *94:20 *885:C 43.0694 
6 *94:12 *875:B 21.4008 
7 *94:10 *893:B 43.2342 
*END

*D_NET *95 0.00471543
*CONN
*I *879:D I *D sg13cmos5l_and4_1
*I *895:D I *D sg13cmos5l_nor4_1
*I *904:D I *D sg13cmos5l_nor4_1
*I *890:B I *D sg13cmos5l_nor3_1
*I *854:A I *D sg13cmos5l_xnor2_1
*I *857:A1 I *D sg13cmos5l_a21oi_1
*I *762:Y O *D sg13cmos5l_inv_1
*CAP
1 *879:D 0.000126049
2 *895:D 0.000180425
3 *904:D 0
4 *890:B 0.000170145
5 *854:A 0
6 *857:A1 0
7 *762:Y 0
8 *95:50 0.000379677
9 *95:41 0.000130005
10 *95:30 0.000584735
11 *95:14 0.000117281
12 *95:8 0.000307055
13 *95:4 0.000547561
14 *879:D *879:C 8.00842e-05
15 *890:B *890:C 1.54008e-05
16 *890:B *904:A 0.000272747
17 *890:B *202:10 8.00842e-05
18 *895:D *879:B 8.36452e-05
19 *895:D *879:C 0
20 *95:8 *854:B 1.54008e-05
21 *95:8 *219:54 0.000111612
22 *95:8 *401:93 0
23 *95:14 *179:31 0
24 *95:14 *210:54 0
25 *95:14 *384:77 0
26 *95:14 *386:33 0.000341152
27 *95:30 *762:A 8.00842e-05
28 *95:30 *216:56 0.000287758
29 *95:30 *219:54 0
30 *95:30 *386:29 0.000235751
31 *95:30 *388:57 0
32 *95:30 *391:55 0
33 *95:30 *401:93 0
34 *95:50 *213:8 7.6403e-05
35 *879:A *890:B 0
36 *885:C *879:D 0.000181192
37 *885:C *95:50 0.000161219
38 *904:C *95:41 7.49794e-05
39 *904:C *95:50 7.49823e-05
*RES
1 *762:Y *95:4 20 
2 *95:4 *95:8 1.9982 
3 *95:8 *95:14 41.5862 
4 *95:14 *857:A1 20 
5 *95:8 *854:A 20 
6 *95:4 *95:30 23.7904 
7 *95:30 *890:B 41.8334 
8 *95:30 *95:41 0.5974 
9 *95:41 *904:D 40 
10 *95:41 *95:50 1.0918 
11 *95:50 *895:D 41.8489 
12 *95:50 *879:D 41.3802 
*END

*D_NET *96 0.002714
*CONN
*I *805:A I *D sg13cmos5l_and2_1
*I *819:A1 I *D sg13cmos5l_a22oi_1
*I *763:Y O *D sg13cmos5l_inv_1
*CAP
1 *805:A 5.9792e-05
2 *819:A1 5.33012e-05
3 *763:Y 0.000421563
4 *96:12 0.000157454
5 *96:8 0.000465924
6 *805:A *789:C 0
7 *819:A1 *789:C 0
8 *819:A1 *148:14 2.18151e-05
9 *96:8 *827:B1 0
10 *96:8 *827:A1 0.000182524
11 *96:8 *828:A1 0
12 *96:8 *119:14 0.000290814
13 *96:8 *136:8 0
14 *96:8 *153:10 0.000235556
15 *96:8 *156:10 0.000825262
*RES
1 *763:Y *96:8 45.7886 
2 *96:8 *96:12 20.5356 
3 *96:12 *819:A1 20.6695 
4 *96:12 *805:A 20.5727 
*END

*D_NET *97 0.012324
*CONN
*I *923:A1 I *D sg13cmos5l_a21oi_1
*I *764:Y O *D sg13cmos5l_inv_1
*CAP
1 *923:A1 0.000169051
2 *764:Y 0
3 *97:22 0.00110064
4 *97:14 0.00384979
5 *97:12 0.00373303
6 *97:6 0.000814819
7 *923:A1 *1083:A 0
8 *923:A1 *227:43 1.54282e-05
9 *923:A1 *288:6 0
10 *923:A1 *370:113 0
11 *97:12 *202:18 0.000571257
12 *97:14 *1191:A 0
13 *97:14 *100:8 0.00103806
14 *97:14 *101:12 0
15 *97:14 *322:8 0.00029097
16 *97:14 *342:12 0
17 *97:14 *371:8 0
18 *97:14 *379:36 0
19 *97:14 *382:8 0
20 *97:14 *394:92 0
21 *97:14 *400:71 0
22 *97:14 *422:10 0
23 *97:22 *992:RESET_B 0.000160863
24 *97:22 *997:RESET_B 0.000436237
25 *97:22 *998:RESET_B 0.000143846
26 *97:22 *261:72 0
27 *97:22 *288:6 0
28 *97:22 *310:8 0
29 bn3 *97:14 0
30 bn7 *97:22 0
31 *992:D *923:A1 0
32 *992:D *97:22 0
33 *7:30 *97:14 0
34 *69:16 *97:14 0
35 *73:12 *97:14 0
*RES
1 *764:Y *97:6 40 
2 *97:6 *97:12 49.6202 
3 *97:12 *97:14 30.5086 
4 *97:14 *97:22 48.9816 
5 *97:22 *923:A1 41.4008 
*END

*D_NET *98 0.00572601
*CONN
*I *925:A1 I *D sg13cmos5l_a21oi_1
*I *765:Y O *D sg13cmos5l_inv_1
*CAP
1 *925:A1 0
2 *765:Y 0.000388058
3 *98:20 3.02053e-05
4 *98:14 0.00223419
5 *98:10 0.00259204
6 *98:10 *111:18 0
7 *98:10 *300:39 0
8 *98:10 *369:89 0.000111876
9 *98:10 *372:24 0.000111876
10 *98:10 *398:87 0.000181192
11 *98:14 *198:54 0
12 *98:14 *254:79 0
13 *98:14 *298:18 0
14 *98:14 *385:66 0
15 *98:20 *254:75 0
16 *98:20 *321:24 7.65627e-05
17 *88:16 *98:14 0
*RES
1 *765:Y *98:10 43.8213 
2 *98:10 *98:14 44.3286 
3 *98:14 *98:20 40.3502 
4 *98:20 *925:A1 20 
*END

*D_NET *99 0.00753787
*CONN
*I *927:A1 I *D sg13cmos5l_a21oi_1
*I *766:Y O *D sg13cmos5l_inv_1
*CAP
1 *927:A1 0
2 *766:Y 0
3 *99:12 0.000699552
4 *99:6 0.000699552
5 *99:12 *927:A2 1.54008e-05
6 *99:12 *994:CLK 0.000207854
7 *99:12 *303:14 0.00296464
8 *99:12 *314:10 0.00295087
*RES
1 *766:Y *99:6 40 
2 *99:6 *99:12 35.0998 
3 *99:12 *927:A1 20 
*END

*D_NET *100 0.0030284
*CONN
*I *929:A1 I *D sg13cmos5l_a21oi_1
*I *767:Y O *D sg13cmos5l_inv_1
*CAP
1 *929:A1 0.000331051
2 *767:Y 0.000295358
3 *100:8 0.000626409
4 *929:A1 *929:A2 1.54008e-05
5 *929:A1 *994:RESET_B 0
6 *929:A1 *995:CLK 0
7 *929:A1 *370:39 0
8 *100:8 *370:39 0
9 *1114:A *929:A1 0.000434272
10 *69:10 *929:A1 0
11 *70:8 *100:8 0.000287845
12 *73:8 *929:A1 0
13 *73:12 *100:8 0
14 *97:14 *100:8 0.00103806
*RES
1 *767:Y *100:8 44.7998 
2 *100:8 *929:A1 43.3475 
*END

*D_NET *101 0.00836367
*CONN
*I *931:A1 I *D sg13cmos5l_a21oi_1
*I *768:Y O *D sg13cmos5l_inv_1
*CAP
1 *931:A1 0
2 *768:Y 0
3 *101:12 0.00196584
4 *101:6 0.00196584
5 *101:12 *927:A2 0
6 *101:12 *931:A2 0
7 *101:12 *985:CLK 0.00081751
8 *101:12 *994:RESET_B 0.00060678
9 *101:12 *995:CLK 0.000340288
10 *101:12 *211:10 0
11 *101:12 *254:167 0
12 *101:12 *258:8 0.000446313
13 *101:12 *303:45 0
14 *101:12 *372:102 0
15 *101:12 *372:117 0
16 *101:12 *379:36 0.001086
17 *101:12 *394:92 0
18 *101:12 *400:87 0.000820154
19 *101:12 *419:25 0
20 *101:12 *422:10 0
21 *40:18 *101:12 8.0216e-05
22 *62:10 *101:12 0.000234726
23 *73:8 *101:12 0
24 *97:14 *101:12 0
*RES
1 *768:Y *101:6 40 
2 *101:6 *101:12 44.2775 
3 *101:12 *931:A1 20 
*END

*D_NET *102 0.00751341
*CONN
*I *933:A1 I *D sg13cmos5l_a21oi_1
*I *769:Y O *D sg13cmos5l_inv_1
*CAP
1 *933:A1 0
2 *769:Y 0.000578524
3 *102:22 0.000880056
4 *102:12 0.00145858
5 *102:12 *869:A1 4.77534e-05
6 *102:12 *1202:A 0
7 *102:12 *198:8 8.02102e-05
8 *102:12 *307:32 0.000111175
9 *102:12 *378:22 0.00018211
10 *102:12 *384:71 0
11 *102:12 *437:20 0
12 *102:12 *438:65 0.000111248
13 *102:22 *129:35 0.000561398
14 *102:22 *193:21 0.000659822
15 *102:22 *258:51 0.00135411
16 *102:22 *355:32 0
17 *102:22 *377:55 0
18 *102:22 *385:10 0.000662725
19 *102:22 *387:91 0.000825695
20 *5:16 *102:22 0
*RES
1 *769:Y *102:12 45.5311 
2 *102:12 *102:22 33.699 
3 *102:22 *933:A1 20 
*END

*D_NET *103 0.0129427
*CONN
*I *935:A1 I *D sg13cmos5l_a21oi_1
*I *770:Y O *D sg13cmos5l_inv_1
*CAP
1 *935:A1 0
2 *770:Y 0.000460369
3 *103:22 0.000435518
4 *103:14 0.00328392
5 *103:10 0.00330877
6 *103:10 *245:42 0.00108672
7 *103:14 *950:A2 0
8 *103:14 *1000:D 0.000177394
9 *103:14 *1002:RESET_B 0
10 *103:14 *1003:RESET_B 0.00118072
11 *103:14 *1008:RESET_B 0
12 *103:14 *1031:A 0
13 *103:14 *1101:A 0
14 *103:14 *105:16 0
15 *103:14 *262:59 0
16 *103:14 *262:63 0
17 *103:14 *290:29 0.000888455
18 *103:14 *318:12 0.000176034
19 *103:14 *354:36 0
20 *103:14 *383:105 0
21 *103:14 *396:77 0
22 *103:14 *399:31 0
23 *103:14 *399:52 0
24 *103:22 *262:15 0
25 *103:22 *262:59 0.000236081
26 *103:22 *372:117 0
27 *103:22 *399:52 0.00027417
28 *103:22 *401:68 0
29 bn5 *103:22 0
30 *1084:A *103:14 0
31 *11:10 *103:14 0.00114641
32 *17:12 *103:14 0
33 *19:16 *103:10 0
34 *74:10 *103:22 0.000208079
35 *81:12 *103:14 8.00842e-05
*RES
1 *770:Y *103:10 46.1079 
2 *103:10 *103:14 49.7676 
3 *103:14 *103:22 44.5011 
4 *103:22 *935:A1 20 
*END

*D_NET *104 0.00476052
*CONN
*I *937:A1 I *D sg13cmos5l_a21oi_1
*I *771:Y O *D sg13cmos5l_inv_1
*CAP
1 *937:A1 0.000109305
2 *771:Y 0.000285527
3 *104:24 0.000771062
4 *104:16 0.000992485
5 *104:8 0.000616254
6 *937:A1 *937:A2 1.54008e-05
7 *937:A1 *213:36 0
8 *937:A1 *225:18 1.54008e-05
9 *104:8 *243:10 0
10 *104:8 *273:24 0.000144041
11 *104:8 *369:89 0.000305881
12 *104:16 *210:24 0
13 *104:16 *273:16 0
14 *104:16 *298:18 0
15 *104:16 *376:8 7.68089e-05
16 *104:24 *941:A1 0
17 *104:24 *941:A2 0.00020808
18 *104:24 *951:D 0.000207777
19 *104:24 *1042:A 0
20 *104:24 *134:31 0.000289893
21 *104:24 *225:18 0
22 *104:24 *298:37 0.000610319
23 *104:24 *370:64 0
24 *104:24 *370:89 0.000112289
25 *104:24 *373:48 0
26 *104:24 *376:25 0
27 *104:24 *377:25 0
28 *104:24 *383:12 0
*RES
1 *771:Y *104:8 42.6986 
2 *104:8 *104:16 42.8325 
3 *104:16 *104:24 47.3748 
4 *104:24 *937:A1 40.9682 
*END

*D_NET *105 0.00594119
*CONN
*I *939:A1 I *D sg13cmos5l_a21oi_1
*I *772:Y O *D sg13cmos5l_inv_1
*CAP
1 *939:A1 0
2 *772:Y 0.000566048
3 *105:28 0
4 *105:24 0.000460618
5 *105:16 0.00197025
6 *105:8 0.00207568
7 *105:8 *351:10 7.51285e-05
8 *105:16 *948:A1 0.000403687
9 *105:16 *948:B1 1.9636e-05
10 *105:16 *952:A1 0.000274578
11 *105:16 *952:B1 4.77425e-05
12 *105:16 *954:B1 0
13 *105:16 *1003:D 0
14 *105:16 *1007:CLK 0
15 *105:16 *1008:D 0
16 *105:16 *240:28 0
17 *105:16 *290:29 0
18 *105:16 *293:10 0
19 *105:16 *354:36 0
20 *105:24 *372:67 0
21 *1073:A *105:16 4.78192e-05
22 *1090:A *105:8 0
23 *11:10 *105:16 0
24 *19:16 *105:8 0
25 *78:18 *105:24 0
26 *84:12 *105:16 0
27 *103:14 *105:16 0
*RES
1 *772:Y *105:8 44.7998 
2 *105:8 *105:16 34.2526 
3 *105:16 *105:24 45.4281 
4 *105:24 *105:28 40 
5 *105:28 *939:A1 20 
*END

*D_NET *106 0.00340749
*CONN
*I *941:A1 I *D sg13cmos5l_a21oi_1
*I *773:Y O *D sg13cmos5l_inv_1
*CAP
1 *941:A1 0.0004881
2 *773:Y 0.000933023
3 *106:20 0.00142112
4 *941:A1 *941:A2 1.54008e-05
5 *941:A1 *951:D 7.88784e-05
6 *941:A1 *953:A 0.000112426
7 *941:A1 *238:8 0.000273091
8 *941:A1 *273:16 0
9 *941:A1 *375:86 4.77425e-05
10 *106:20 *1004:D 0
11 *106:20 *243:10 0
12 *106:20 *246:14 0
13 *106:20 *369:89 0
14 *106:20 *373:54 2.21849e-05
15 *1143:A *106:20 0
16 *78:18 *106:20 1.55212e-05
17 *104:24 *941:A1 0
*RES
1 *773:Y *106:20 49.2803 
2 *106:20 *941:A1 44.5114 
*END

*D_NET *107 0.0058901
*CONN
*I *942:A1 I *D sg13cmos5l_a21oi_1
*I *774:Y O *D sg13cmos5l_inv_1
*CAP
1 *942:A1 0.000150221
2 *774:Y 0.000586669
3 *107:14 0.00111217
4 *107:8 0.00154862
5 *942:A1 *951:B 0.000237089
6 *942:A1 *1176:A 2.21849e-05
7 *942:A1 *219:30 0.000293272
8 *942:A1 *376:36 0.000293681
9 *107:8 *254:107 0
10 *107:8 *254:127 0
11 *107:8 *291:10 0
12 *107:8 *367:10 0
13 *107:14 *202:54 0
14 *107:14 *238:16 8.09323e-05
15 *107:14 *310:20 0
16 *107:14 *380:90 0.000211669
17 *82:8 *107:8 0.00135359
*RES
1 *774:Y *107:8 48.2606 
2 *107:8 *107:14 49.4039 
3 *107:14 *942:A1 42.575 
*END

*D_NET *108 0.00649816
*CONN
*I *944:A1 I *D sg13cmos5l_a21oi_1
*I *775:Y O *D sg13cmos5l_inv_1
*CAP
1 *944:A1 0
2 *775:Y 6.91197e-05
3 *108:18 0.00164222
4 *108:8 0.00171134
5 *108:8 *775:A 0.000111946
6 *108:8 *866:A2 0
7 *108:18 *944:A2 1.54556e-05
8 *108:18 *963:A 0.000187923
9 *108:18 *963:B 4.78524e-05
10 *108:18 *966:B 0
11 *108:18 *1139:A 0.000112108
12 *108:18 *109:12 0.000499932
13 *108:18 *121:57 0
14 *108:18 *125:26 0
15 *108:18 *133:26 0.000824369
16 *108:18 *244:28 0.000112543
17 *108:18 *247:10 0
18 *108:18 *249:10 4.75212e-05
19 *108:18 *256:10 0
20 *108:18 *269:64 0
21 *108:18 *270:10 0.000611284
22 *108:18 *346:10 0
23 *108:18 *405:35 0
24 *108:18 *407:16 0
25 *108:18 *448:12 0.000504542
26 *108:18 *448:48 0
27 *55:10 *108:18 0
*RES
1 *775:Y *108:8 40.7519 
2 *108:8 *108:18 38.9829 
3 *108:18 *944:A1 20 
*END

*D_NET *109 0.00384677
*CONN
*I *946:A1 I *D sg13cmos5l_a21oi_1
*I *776:Y O *D sg13cmos5l_inv_1
*CAP
1 *946:A1 0.000622453
2 *776:Y 0.000715698
3 *109:12 0.00133815
4 *946:A1 *1012:RESET_B 0
5 *946:A1 *1012:D 0
6 *946:A1 *244:28 0
7 *946:A1 *369:89 0
8 *946:A1 *397:41 0
9 *109:12 *790:A 0
10 *109:12 *863:A1 8.0276e-05
11 *109:12 *863:B1 8.03692e-05
12 *109:12 *966:B 0
13 *109:12 *979:CLK 0
14 *109:12 *1068:A 0
15 *109:12 *243:10 0.000236962
16 *109:12 *250:10 0
17 *109:12 *407:16 0
18 *109:12 *447:41 0
19 *1069:A *109:12 0
20 *55:10 *109:12 0
21 *80:10 *946:A1 0.000272933
22 *108:18 *109:12 0.000499932
*RES
1 *776:Y *109:12 48.4048 
2 *109:12 *946:A1 45.2942 
*END

*D_NET *110 0.00536964
*CONN
*I *948:A1 I *D sg13cmos5l_a21oi_1
*I *777:Y O *D sg13cmos5l_inv_1
*CAP
1 *948:A1 0.00079798
2 *777:Y 0.00065391
3 *110:10 0.00145189
4 *948:A1 *1007:CLK 0
5 *948:A1 *245:28 0
6 *948:A1 *369:12 0
7 *948:A1 *396:38 0
8 *948:A1 *396:50 0.000450985
9 *948:A1 *396:68 0
10 *110:10 *290:16 0.000287846
11 *110:10 *397:12 0.000182626
12 *110:10 *440:27 0
13 *110:10 *442:8 0
14 *46:10 *110:10 0.00114071
15 *89:12 *948:A1 0
16 *89:12 *110:10 0
17 *105:16 *948:A1 0.000403687
*RES
1 *777:Y *110:10 48.0855 
2 *110:10 *948:A1 48.4872 
*END

*D_NET *111 0.00629712
*CONN
*I *950:A1 I *D sg13cmos5l_a21oi_1
*I *778:Y O *D sg13cmos5l_inv_1
*CAP
1 *950:A1 0
2 *778:Y 0.000925895
3 *111:18 0.00143275
4 *111:12 0.00235865
5 *111:12 *956:A2 0.000144768
6 *111:12 *1015:CLK 0.000339623
7 *111:12 *243:22 0
8 *111:12 *397:12 0.000144849
9 *111:12 *397:20 4.78688e-05
10 *111:18 *950:A2 1.54008e-05
11 *111:18 *290:8 0
12 *111:18 *290:16 0
13 *111:18 *300:16 0.000241946
14 *111:18 *300:24 0.000177032
15 *111:18 *300:39 0
16 bp4 *111:18 0
17 *15:24 *111:18 0.000468333
18 *98:10 *111:18 0
*RES
1 *778:Y *111:12 48.5593 
2 *111:12 *111:18 33.1222 
3 *111:18 *950:A1 20 
*END

*D_NET *112 0.0039292
*CONN
*I *952:A1 I *D sg13cmos5l_a21oi_1
*I *779:Y O *D sg13cmos5l_inv_1
*CAP
1 *952:A1 0.000408969
2 *779:Y 0.000846912
3 *112:10 0.00125588
4 *952:A1 *1007:CLK 0.000337754
5 *112:10 *778:A 0
6 *112:10 *956:A1 0
7 *112:10 *960:A1 0
8 *112:10 *1029:A 0
9 *112:10 *1032:A 0
10 *112:10 *114:10 0
11 *112:10 *245:42 0.000181192
12 *112:10 *260:37 0
13 *112:10 *277:10 0.000287759
14 *112:10 *312:14 0
15 *112:10 *316:21 1.54008e-05
16 *112:10 *369:8 0
17 *112:10 *369:115 0.000112558
18 *1073:A *952:A1 0.000208195
19 *87:12 *112:10 0
20 *105:16 *952:A1 0.000274578
*RES
1 *779:Y *112:10 47.2186 
2 *112:10 *952:A1 44.4496 
*END

*D_NET *113 0.00197355
*CONN
*I *954:A1 I *D sg13cmos5l_a21oi_1
*I *780:Y O *D sg13cmos5l_inv_1
*CAP
1 *954:A1 0
2 *780:Y 0.000501942
3 *113:8 0.000501942
4 *113:8 *778:A 0
5 *113:8 *780:A 0
6 *113:8 *783:A 0.00018128
7 *113:8 *243:30 0
8 *113:8 *276:8 0.000500302
9 *113:8 *340:10 0.000288087
*RES
1 *780:Y *113:8 45.2942 
2 *113:8 *954:A1 40 
*END

*D_NET *114 0.00374275
*CONN
*I *956:A1 I *D sg13cmos5l_a21oi_1
*I *781:Y O *D sg13cmos5l_inv_1
*CAP
1 *956:A1 0.000945396
2 *781:Y 0.000187035
3 *114:10 0.00113243
4 *956:A1 *778:A 0
5 *956:A1 *243:22 0
6 *956:A1 *369:8 0.000856157
7 *956:A1 *369:66 0.000226666
8 *956:A1 *369:115 0
9 *956:A1 *397:12 0
10 *114:10 *778:A 0.000395067
11 *114:10 *960:A1 0
12 *114:10 *369:115 0
13 *114:10 *398:46 0
14 *112:10 *956:A1 0
15 *112:10 *114:10 0
*RES
1 *781:Y *114:10 42.369 
2 *114:10 *956:A1 49.3215 
*END

*D_NET *115 0.00406822
*CONN
*I *958:A1 I *D sg13cmos5l_a21oi_1
*I *782:Y O *D sg13cmos5l_inv_1
*CAP
1 *958:A1 0
2 *782:Y 0
3 *115:12 0.00187397
4 *115:6 0.00187397
5 *115:12 *778:A 0
6 *115:12 *1056:A 0
7 *115:12 *245:42 8.00842e-05
8 *115:12 *260:33 0
9 *115:12 *298:24 0
10 *115:12 *396:16 0
11 *115:12 *396:103 0
12 *115:12 *398:46 0
13 bp8 *115:12 0
14 *14:10 *115:12 0.000240196
*RES
1 *782:Y *115:6 40 
2 *115:6 *115:12 35.0689 
3 *115:12 *958:A1 20 
*END

*D_NET *116 0.0011351
*CONN
*I *960:A1 I *D sg13cmos5l_a21oi_1
*I *783:Y O *D sg13cmos5l_inv_1
*CAP
1 *960:A1 0.000334203
2 *783:Y 0.000334203
3 *960:A1 *781:A 0.000241792
4 *960:A1 *783:A 0.00020945
5 *960:A1 *1029:A 0
6 *960:A1 *246:14 1.54556e-05
7 *112:10 *960:A1 0
8 *114:10 *960:A1 0
*RES
1 *783:Y *960:A1 43.3475 
*END

*D_NET *117 0.00197696
*CONN
*I *869:A1 I *D sg13cmos5l_o21ai_1
*I *874:A I *D sg13cmos5l_nor2_1
*I *784:Y O *D sg13cmos5l_inv_1
*CAP
1 *869:A1 0.000350641
2 *874:A 3.40944e-05
3 *784:Y 0.000131476
4 *117:12 0.000516211
5 *869:A1 *868:B1 0
6 *869:A1 *869:A2 1.54282e-05
7 *869:A1 *880:A 8.00842e-05
8 *869:A1 *1202:A 0.000176781
9 *869:A1 *186:18 0.000129383
10 *869:A1 *263:34 0.000183601
11 *117:12 *192:16 0.000235565
12 *117:12 *263:34 0
13 *7:18 *874:A 7.59424e-05
14 *102:12 *869:A1 4.77534e-05
*RES
1 *784:Y *117:12 41.7304 
2 *117:12 *874:A 40.5073 
3 *117:12 *869:A1 43.962 
*END

*D_NET *118 0.00284585
*CONN
*I *804:B2 I *D sg13cmos5l_a221oi_1
*I *802:A I *D sg13cmos5l_nand2_1
*I *801:A I *D sg13cmos5l_and2_1
*I *785:Y O *D sg13cmos5l_inv_1
*CAP
1 *804:B2 0
2 *802:A 0.000293006
3 *801:A 0
4 *785:Y 0.000127713
5 *118:42 0.000187792
6 *118:14 0.000660299
7 *118:8 0.000682798
8 *802:A *801:B 0
9 *802:A *917:A 0.000144959
10 *802:A *917:B 0
11 *802:A *131:8 0.00021782
12 *802:A *133:12 4.33933e-05
13 *802:A *388:37 1.54008e-05
14 *118:8 *789:C 0
15 *118:8 *981:CLK 8.0216e-05
16 *118:8 *135:10 0
17 *118:8 *170:14 0
18 *118:8 *335:34 1.54008e-05
19 *118:14 *804:B1 0
20 *118:14 *804:A1 0
21 *118:14 *256:101 0
22 *118:14 *335:34 7.65627e-05
23 *118:14 *388:16 0
24 *118:14 *403:20 0
25 *118:42 *804:C1 8.03091e-05
26 *118:42 *804:A1 0
27 *118:42 *981:CLK 9.61894e-05
28 *118:42 *123:16 7.65627e-05
29 *118:42 *335:34 4.74248e-05
30 *118:42 *403:20 0
*RES
1 *785:Y *118:8 21.3184 
2 *118:8 *118:14 43.0694 
3 *118:14 *801:A 20 
4 *118:14 *802:A 23.2445 
5 *118:8 *118:42 42.1012 
6 *118:42 *804:B2 20 
*END

*D_NET *119 0.00145754
*CONN
*I *819:A2 I *D sg13cmos5l_a22oi_1
*I *805:B I *D sg13cmos5l_and2_1
*I *786:Y O *D sg13cmos5l_nor2b_1
*CAP
1 *819:A2 0
2 *805:B 0
3 *786:Y 0.000177405
4 *119:14 9.51378e-05
5 *119:8 0.000272543
6 *119:8 *137:42 0.000144179
7 *119:8 *448:35 8.00842e-05
8 *119:14 *136:8 0.00039738
9 *119:14 *156:10 0
10 *96:8 *119:14 0.000290814
*RES
1 *786:Y *119:8 21.751 
2 *119:8 *119:14 41.8334 
3 *119:14 *805:B 20 
4 *119:8 *819:A2 20 
*END

*D_NET *120 0.00401247
*CONN
*I *791:A I *D sg13cmos5l_and2_1
*I *788:A I *D sg13cmos5l_inv_1
*I *792:A I *D sg13cmos5l_nand2_1
*I *787:Y O *D sg13cmos5l_nand3b_1
*CAP
1 *791:A 0.000153748
2 *788:A 8.04936e-05
3 *792:A 0.000206975
4 *787:Y 0.000955314
5 *120:30 0.000982581
6 *788:A *785:A 0.000144361
7 *788:A *981:CLK 0.000144261
8 *791:A *981:CLK 0.000208609
9 *791:A *122:14 0.000128654
10 *791:A *126:48 0.00010609
11 *791:A *400:16 0
12 *792:A *787:B 0.000174858
13 *792:A *792:B 0
14 *792:A *123:16 0
15 *792:A *124:6 0
16 *792:A *125:12 0
17 *792:A *269:42 1.54556e-05
18 *120:30 *787:C 0
19 *120:30 *794:A 6.05155e-06
20 *120:30 *1040:A 0.000175437
21 *120:30 *122:14 7.65602e-05
22 *120:30 *123:16 0
23 *120:30 *126:48 0.000453019
24 *120:30 *216:14 0
25 *120:30 *401:38 0
26 *120:30 *449:14 0
*RES
1 *787:Y *792:A 42.2918 
2 *787:Y *120:30 46.7568 
3 *120:30 *788:A 40.9682 
4 *120:30 *791:A 41.9982 
*END

*D_NET *121 0.0102531
*CONN
*I *867:A I *D sg13cmos5l_nand2_1
*I *791:B I *D sg13cmos5l_and2_1
*I *962:A I *D sg13cmos5l_nand3_1
*I *792:B I *D sg13cmos5l_nand2_1
*I *790:A I *D sg13cmos5l_inv_1
*I *789:Y O *D sg13cmos5l_nand3b_1
*CAP
1 *867:A 0.000138959
2 *791:B 0
3 *962:A 0
4 *792:B 0.000527761
5 *790:A 0.00100206
6 *789:Y 0.000467749
7 *121:66 0.0006525
8 *121:57 0.000170159
9 *121:47 0.00097175
10 *121:30 0.000976184
11 *121:8 0.00130943
12 *790:A *758:A 0
13 *790:A *829:A 0
14 *790:A *864:B1 1.54556e-05
15 *790:A *864:A1 0
16 *790:A *968:RESET_B 0
17 *790:A *968:D 0
18 *790:A *259:44 0
19 *790:A *398:12 0.000144942
20 *792:B *793:A 0
21 *792:B *148:20 0
22 *792:B *256:10 0.000551896
23 *792:B *269:42 0
24 *792:B *448:48 7.65627e-05
25 *792:B *448:72 0
26 *867:A *206:16 0
27 *867:A *400:10 0.000181508
28 *867:A *401:51 0
29 *121:8 *142:10 0
30 *121:8 *155:40 0.000818729
31 *121:8 *305:36 0.000343525
32 *121:30 *786:A 0
33 *121:30 *148:14 0.000110488
34 *121:30 *148:82 6.36001e-05
35 *121:30 *448:14 0
36 *121:47 *269:23 0
37 *121:47 *325:53 0.000212635
38 *121:47 *447:10 0
39 *121:47 *448:48 0.000397372
40 *121:57 *918:A 0.000236844
41 *121:57 *133:16 0
42 *121:57 *133:26 0.000131027
43 *121:57 *148:82 2.07911e-05
44 *121:57 *269:64 0.000235201
45 *121:57 *448:48 0
46 *121:66 *122:14 0
47 *121:66 *325:53 0.00022836
48 *792:A *792:B 0
49 *1082:A *790:A 4.79124e-05
50 *46:10 *790:A 0
51 *55:10 *790:A 0.000144162
52 *57:8 *867:A 7.55443e-05
53 *108:18 *121:57 0
54 *109:12 *790:A 0
*RES
1 *789:Y *121:8 44.3054 
2 *121:8 *790:A 49.6408 
3 *789:Y *121:30 41.4008 
4 *121:30 *792:B 45.3663 
5 *121:30 *121:47 23.8831 
6 *121:47 *121:57 42.5699 
7 *121:57 *962:A 20 
8 *121:47 *121:66 26.1594 
9 *121:66 *791:B 40 
10 *121:66 *867:A 41.5862 
*END

*D_NET *122 0.00591208
*CONN
*I *917:A I *D sg13cmos5l_and2_1
*I *918:A I *D sg13cmos5l_nand2_1
*I *847:A I *D sg13cmos5l_nand3_1
*I *791:X O *D sg13cmos5l_and2_1
*CAP
1 *917:A 0.000420388
2 *918:A 0.000579304
3 *847:A 1.74641e-05
4 *791:X 0
5 *122:14 0.00127559
6 *122:6 0.0010992
7 *847:A *256:86 3.15716e-05
8 *847:A *269:8 3.06669e-05
9 *917:A *917:B 0
10 *917:A *964:B 0.000175513
11 *917:A *126:48 0
12 *917:A *384:31 0
13 *917:A *388:37 0
14 *917:A *401:51 0.000557197
15 *918:A *125:26 0
16 *918:A *133:12 0
17 *918:A *133:16 0
18 *918:A *138:64 0.000607819
19 *918:A *248:10 0
20 *918:A *269:64 0
21 *918:A *385:66 1.54008e-05
22 *918:A *388:12 4.77425e-05
23 *122:14 *126:48 0
24 *122:14 *325:53 0
25 *122:14 *401:51 0.000343062
26 *791:A *122:14 0.000128654
27 *802:A *917:A 0.000144959
28 *13:12 *917:A 0.000124145
29 *120:30 *122:14 7.65602e-05
30 *121:57 *918:A 0.000236844
31 *121:66 *122:14 0
*RES
1 *791:X *122:6 40 
2 *122:6 *122:14 46.8804 
3 *122:14 *847:A 40.2112 
4 *122:14 *918:A 46.1079 
5 *122:6 *917:A 44.9749 
*END

*D_NET *123 0.00352995
*CONN
*I *804:C1 I *D sg13cmos5l_a221oi_1
*I *792:Y O *D sg13cmos5l_nand2_1
*CAP
1 *804:C1 5.29755e-05
2 *792:Y 0.000789356
3 *123:16 0.000842332
4 *804:C1 *981:CLK 0
5 *123:16 *787:B 0
6 *123:16 *787:C 0
7 *123:16 *794:A 0
8 *123:16 *124:6 0.000209732
9 *123:16 *125:12 4.78663e-05
10 *123:16 *126:12 0
11 *123:16 *126:25 0.000609986
12 *123:16 *335:34 0
13 *123:16 *384:21 0.000820827
14 *123:16 *403:20 0
15 *792:A *123:16 0
16 *118:42 *804:C1 8.03091e-05
17 *118:42 *123:16 7.65627e-05
18 *120:30 *123:16 0
*RES
1 *792:Y *123:16 49.7232 
2 *123:16 *804:C1 40.5356 
*END

*D_NET *124 0.000719542
*CONN
*I *794:B I *D sg13cmos5l_and2_1
*I *795:B I *D sg13cmos5l_nand2_1
*I *793:Y O *D sg13cmos5l_nor2_1
*CAP
1 *794:B 0
2 *795:B 6.68694e-05
3 *793:Y 0.000188036
4 *124:6 0.000254905
5 *124:6 *126:12 0
6 *792:A *124:6 0
7 *123:16 *124:6 0.000209732
*RES
1 *793:Y *124:6 22.0497 
2 *124:6 *795:B 20.8446 
3 *124:6 *794:B 20 
*END

*D_NET *125 0.00542353
*CONN
*I *922:A I *D sg13cmos5l_nor3_1
*I *1049:A I *D sg13cmos5l_buf_1
*I *965:A1 I *D sg13cmos5l_o21ai_1
*I *794:X O *D sg13cmos5l_and2_1
*CAP
1 *922:A 0.000164606
2 *1049:A 0
3 *965:A1 0
4 *794:X 0.000736967
5 *125:26 0.000296149
6 *125:16 0.000420886
7 *125:12 0.00102631
8 *922:A *922:C 1.51749e-05
9 *922:A *248:10 0.000212127
10 *922:A *256:101 0
11 *922:A *388:12 0.000144805
12 *125:12 *137:12 0
13 *125:12 *248:10 0.00120095
14 *125:12 *256:101 0
15 *125:12 *325:53 0.000666909
16 *125:12 *447:56 0
17 *125:16 *917:B 0.000175853
18 *125:16 *447:56 0
19 *125:26 *917:B 4.77425e-05
20 *125:26 *138:64 0.000128908
21 *125:26 *224:14 1.54008e-05
22 *125:26 *270:10 0
23 *125:26 *385:66 0.000122871
24 *125:26 *447:41 0
25 *792:A *125:12 0
26 *918:A *125:26 0
27 *24:38 *125:12 0
28 *108:18 *125:26 0
29 *123:16 *125:12 4.78663e-05
*RES
1 *794:X *125:12 48.9301 
2 *125:12 *125:16 21.1845 
3 *125:16 *125:26 42.9355 
4 *125:26 *965:A1 20 
5 *125:16 *1049:A 20 
6 *125:12 *922:A 42.06 
*END

*D_NET *126 0.00908755
*CONN
*I *919:B I *D sg13cmos5l_or3_1
*I *962:B I *D sg13cmos5l_nand3_1
*I *1048:A I *D sg13cmos5l_buf_1
*I *795:Y O *D sg13cmos5l_nand2_1
*CAP
1 *919:B 0.000705846
2 *962:B 0
3 *1048:A 0
4 *795:Y 0
5 *126:48 0.00123856
6 *126:35 0.000511331
7 *126:25 0.00146216
8 *126:12 0.000473437
9 *126:4 0.000891554
10 *919:B *867:B 0
11 *919:B *919:A 1.54556e-05
12 *919:B *1187:A 0.000176521
13 *919:B *388:37 0.000753789
14 *919:B *400:27 8.02434e-05
15 *126:12 *976:CLK 0
16 *126:12 *1045:A 0
17 *126:12 *256:10 0
18 *126:12 *387:12 0.000128991
19 *126:12 *449:26 4.79124e-05
20 *126:25 *794:A 0
21 *126:25 *1045:A 0
22 *126:25 *335:34 0.00029087
23 *126:25 *384:21 0
24 *126:25 *449:26 3.23965e-05
25 *126:35 *133:26 0
26 *126:35 *148:97 1.2706e-05
27 *126:48 *216:14 0.000182881
28 *126:48 *384:31 0.000769913
29 *791:A *126:48 0.00010609
30 *917:A *126:48 0
31 *24:38 *126:12 0
32 *25:10 *919:B 0.000143893
33 *120:30 *126:48 0.000453019
34 *122:14 *126:48 0
35 *123:16 *126:12 0
36 *123:16 *126:25 0.000609986
37 *124:6 *126:12 0
*RES
1 *795:Y *126:4 20 
2 *126:4 *126:12 45.3354 
3 *126:12 *1048:A 20 
4 *126:4 *126:25 45.0264 
5 *126:25 *126:35 43.5947 
6 *126:35 *962:B 20 
7 *126:25 *126:48 46.386 
8 *126:48 *919:B 27.2615 
*END

*D_NET *127 0.000526101
*CONN
*I *857:A2 I *D sg13cmos5l_a21oi_1
*I *854:B I *D sg13cmos5l_xnor2_1
*I *796:Y O *D sg13cmos5l_nor2b_1
*CAP
1 *857:A2 9.05515e-05
2 *854:B 0.000145024
3 *796:Y 0.000110326
4 *127:8 0.000164798
5 *854:B *401:93 0
6 *127:8 *384:77 0
7 *127:8 *386:33 0
8 *95:8 *854:B 1.54008e-05
*RES
1 *796:Y *127:8 41.0918 
2 *127:8 *854:B 40.5356 
3 *854:B *857:A2 41.0918 
*END

*D_NET *128 0.00357872
*CONN
*I *908:C I *D sg13cmos5l_nor3_1
*I *890:C I *D sg13cmos5l_nor3_1
*I *798:C I *D sg13cmos5l_nor3_1
*I *851:A1 I *D sg13cmos5l_a21oi_1
*I *797:Y O *D sg13cmos5l_nand2b_1
*CAP
1 *908:C 9.62916e-05
2 *890:C 0.000253837
3 *798:C 0
4 *851:A1 0
5 *797:Y 0.000279668
6 *128:33 0.000552946
7 *128:25 0.000779167
8 *128:14 0.000383766
9 *128:12 0.000279668
10 *890:C *895:B 0
11 *890:C *206:8 1.52636e-05
12 *890:C *216:56 0
13 *890:C *389:78 0
14 *890:C *403:14 0
15 *908:C *216:14 0
16 *908:C *403:14 0.000135161
17 *128:12 *976:CLK 4.78521e-05
18 *128:12 *387:36 4.78521e-05
19 *128:12 *391:103 0
20 *128:25 *851:A2 0.000208966
21 *128:25 *851:B1 0
22 *128:25 *216:14 0
23 *128:25 *386:21 0.000240763
24 *128:25 *403:14 6.03998e-06
25 *128:33 *1045:A 0
26 *128:33 *1050:A 0
27 *128:33 *129:25 0
28 *128:33 *387:36 0
29 *128:33 *389:10 0.000236081
30 *128:33 *401:38 0
31 *128:33 *403:14 0
32 *890:B *890:C 1.54008e-05
33 *24:38 *128:12 0
*RES
1 *797:Y *128:12 42.7192 
2 *128:12 *128:14 20 
3 *128:14 *851:A1 20 
4 *128:14 *128:25 4.0788 
5 *128:25 *128:33 42.8016 
6 *128:33 *798:C 20 
7 *128:33 *890:C 22.5338 
8 *128:25 *908:C 20.9682 
*END

*D_NET *129 0.00539145
*CONN
*I *1046:A I *D sg13cmos5l_buf_1
*I *1045:A I *D sg13cmos5l_buf_1
*I *798:Y O *D sg13cmos5l_nor3_1
*CAP
1 *1046:A 0
2 *1045:A 0.000649423
3 *798:Y 0.000125386
4 *129:35 0.000289695
5 *129:25 0.00100142
6 *129:6 0.00148653
7 *1045:A *794:A 0
8 *1045:A *797:A_N 0
9 *1045:A *865:A2 0
10 *1045:A *384:21 0
11 *1045:A *437:6 0
12 *1045:A *449:26 0
13 *129:25 *798:A 0
14 *129:25 *186:18 0
15 *129:25 *198:16 0
16 *129:25 *202:18 0
17 *129:25 *303:26 0
18 *129:25 *387:57 0
19 *129:25 *437:6 0
20 *129:25 *438:53 0.000240217
21 *129:35 *874:B 8.04932e-05
22 *129:35 *193:10 0.000290311
23 *129:35 *193:21 0.000323479
24 *129:35 *213:24 0
25 *129:35 *384:73 0.000343101
26 *129:35 *437:20 0
27 *102:22 *129:35 0.000561398
28 *126:12 *1045:A 0
29 *126:25 *1045:A 0
30 *128:33 *1045:A 0
31 *128:33 *129:25 0
*RES
1 *798:Y *129:6 21.5862 
2 *129:6 *1045:A 25.9637 
3 *129:6 *129:25 47.5602 
4 *129:25 *129:35 45.4075 
5 *129:35 *1046:A 20 
*END

*D_NET *130 0.00324483
*CONN
*I *867:B I *D sg13cmos5l_nand2_1
*I *869:A2 I *D sg13cmos5l_o21ai_1
*I *848:B I *D sg13cmos5l_nand2b_1
*I *799:Y O *D sg13cmos5l_nand2_1
*CAP
1 *867:B 0.00063659
2 *869:A2 0.000390952
3 *848:B 0
4 *799:Y 0.000188445
5 *130:14 0.000499787
6 *130:10 0.00093387
7 *867:B *981:RESET_B 1.54008e-05
8 *867:B *206:16 0
9 *867:B *254:55 0
10 *867:B *307:32 0
11 *867:B *400:16 0.000271956
12 *869:A2 *848:A_N 1.54008e-05
13 *869:A2 *1201:A 5.25612e-06
14 *869:A2 *1202:A 0
15 *869:A2 *378:22 0.000271745
16 *869:A2 *384:52 0
17 *130:10 *384:52 0
18 *130:14 *206:16 0
19 *130:14 *307:32 0
20 *869:A1 *869:A2 1.54282e-05
21 *919:B *867:B 0
22 *4:8 *869:A2 0
*RES
1 *799:Y *130:10 40.9209 
2 *130:10 *130:14 20.6694 
3 *130:14 *848:B 20 
4 *130:14 *869:A2 23.8996 
5 *130:10 *867:B 46.6332 
*END

*D_NET *131 0.00317065
*CONN
*I *801:B I *D sg13cmos5l_and2_1
*I *802:B I *D sg13cmos5l_nand2_1
*I *961:B I *D sg13cmos5l_nand2_1
*I *804:B1 I *D sg13cmos5l_a221oi_1
*I *800:Y O *D sg13cmos5l_nor3_1
*CAP
1 *801:B 4.98244e-05
2 *802:B 0
3 *961:B 0.000277952
4 *804:B1 0.000165089
5 *800:Y 0.000199774
6 *131:10 0.000443041
7 *131:8 0.000192679
8 *131:6 0.000442277
9 *804:B1 *804:A2 0.000253559
10 *804:B1 *403:20 0
11 *961:B *804:A2 7.53765e-05
12 *961:B *216:24 0
13 *961:B *216:34 0
14 *961:B *223:8 0
15 *961:B *244:14 0
16 *961:B *385:56 0.000645101
17 *961:B *388:16 0
18 *131:6 *917:B 0
19 *131:6 *133:12 0
20 *131:6 *133:58 0
21 *131:6 *447:56 0.000208156
22 *131:8 *917:B 0
23 *131:8 *133:12 0
24 *131:8 *388:37 0
25 *802:A *801:B 0
26 *802:A *131:8 0.00021782
27 *118:14 *804:B1 0
*RES
1 *800:Y *131:6 21.8334 
2 *131:6 *131:8 1.8334 
3 *131:8 *131:10 20 
4 *131:10 *804:B1 41.8334 
5 *131:10 *961:B 43.811 
6 *131:8 *802:B 20 
7 *131:6 *801:B 20.5974 
*END

*D_NET *132 0.00110332
*CONN
*I *803:B1 I *D sg13cmos5l_a21oi_1
*I *922:B I *D sg13cmos5l_nor3_1
*I *801:X O *D sg13cmos5l_and2_1
*CAP
1 *803:B1 0.00021944
2 *922:B 5.27114e-05
3 *801:X 0.000162122
4 *132:10 0.000272151
5 *132:8 0.000162122
6 *803:B1 *803:A1 0.00014416
7 *803:B1 *405:35 0
8 *922:B *922:C 1.54008e-05
9 *922:B *388:12 0
10 *132:8 *216:34 0
11 *132:8 *228:8 7.52149e-05
*RES
1 *801:X *132:8 41.339 
2 *132:8 *132:10 20 
3 *132:10 *922:B 20.5356 
4 *132:10 *803:B1 22.1012 
*END

*D_NET *133 0.00883742
*CONN
*I *861:B1 I *D sg13cmos5l_o21ai_1
*I *847:B I *D sg13cmos5l_nand3_1
*I *862:A I *D sg13cmos5l_and2_1
*I *802:Y O *D sg13cmos5l_nand2_1
*CAP
1 *861:B1 0
2 *847:B 3.02592e-05
3 *862:A 0.000435348
4 *802:Y 0.000473466
5 *133:58 0.000947925
6 *133:26 0.000936043
7 *133:16 0.000873157
8 *133:12 0.00176359
9 *847:B *148:82 1.54008e-05
10 *847:B *148:97 4.77425e-05
11 *847:B *269:8 4.77425e-05
12 *862:A *775:A 0
13 *862:A *793:A 0
14 *862:A *862:B 8.00842e-05
15 *133:12 *135:10 0
16 *133:12 *388:37 0.000111796
17 *133:12 *447:56 8.0216e-05
18 *133:16 *135:10 0.000235715
19 *133:16 *137:12 0.000292494
20 *133:26 *148:97 0.0001292
21 *133:26 *254:27 0
22 *133:26 *254:35 0
23 *133:58 *800:B 0
24 *133:58 *864:A1 0.000209725
25 *133:58 *864:A2 0
26 *133:58 *1136:A 0
27 *133:58 *135:18 4.78688e-05
28 *133:58 *138:51 0.000144549
29 *133:58 *138:64 0.000856126
30 *133:58 *270:10 8.01789e-05
31 *133:58 *447:41 0
32 *133:58 *447:56 0
33 *802:A *133:12 4.33933e-05
34 *918:A *133:12 0
35 *918:A *133:16 0
36 *108:18 *133:26 0.000824369
37 *121:57 *133:16 0
38 *121:57 *133:26 0.000131027
39 *126:35 *133:26 0
40 *131:6 *133:12 0
41 *131:6 *133:58 0
42 *131:8 *133:12 0
*RES
1 *802:Y *133:12 44.0788 
2 *133:12 *133:16 3.605 
3 *133:16 *133:26 45.8401 
4 *133:26 *862:A 43.5638 
5 *133:16 *847:B 40.3193 
6 *133:12 *133:58 30.2897 
7 *133:58 *861:B1 20 
*END

*D_NET *134 0.00587203
*CONN
*I *936:A I *D sg13cmos5l_nand4_1
*I *1044:A I *D sg13cmos5l_buf_1
*I *803:Y O *D sg13cmos5l_a21oi_1
*CAP
1 *936:A 0
2 *1044:A 0
3 *803:Y 0.00026909
4 *134:39 0.000157527
5 *134:31 0.000498912
6 *134:16 0.000621964
7 *134:10 0.000549668
8 *134:10 *1176:A 0.000662769
9 *134:10 *240:10 0.000143017
10 *134:10 *376:8 7.57402e-05
11 *134:10 *385:85 1.54008e-05
12 *134:10 *405:35 7.9225e-05
13 *134:16 *942:A2 0.000207854
14 *134:16 *946:A2 0.000175513
15 *134:31 *945:B 0.000336724
16 *134:31 *370:64 0.000289185
17 *134:31 *377:25 0.000144089
18 *134:31 *383:39 0.000336767
19 *134:39 *937:A2 4.77425e-05
20 *134:39 *1187:A 0.000395884
21 *134:39 *223:35 0
22 *134:39 *225:8 0.00012816
23 *134:39 *274:10 0
24 *134:39 *399:10 0
25 *88:8 *134:10 0.000446908
26 *104:24 *134:31 0.000289893
*RES
1 *803:Y *134:10 44.2539 
2 *134:10 *134:16 22.8325 
3 *134:16 *1044:A 20 
4 *134:16 *134:31 44.5732 
5 *134:31 *134:39 42.1527 
6 *134:39 *936:A 20 
*END

*D_NET *135 0.0141257
*CONN
*I *824:A I *D sg13cmos5l_nor2b_1
*I *816:A2 I *D sg13cmos5l_o21ai_1
*I *813:A2 I *D sg13cmos5l_a21oi_1
*I *842:A I *D sg13cmos5l_nand2_1
*I *818:A_N I *D sg13cmos5l_nand2b_1
*I *832:A_N I *D sg13cmos5l_nand2b_1
*I *836:A_N I *D sg13cmos5l_nand2b_1
*I *804:Y O *D sg13cmos5l_a221oi_1
*CAP
1 *824:A 5.10268e-05
2 *816:A2 0
3 *813:A2 0.000155384
4 *842:A 0
5 *818:A_N 2.53836e-05
6 *832:A_N 0.00036907
7 *836:A_N 0.000210302
8 *804:Y 0.000355338
9 *135:117 0.000833238
10 *135:90 0.000858622
11 *135:64 0.000955515
12 *135:58 0.000572751
13 *135:50 0.000673293
14 *135:34 0.000491486
15 *135:28 0.00076143
16 *135:18 0.00142429
17 *135:10 0.0012394
18 *813:A2 *146:12 1.54008e-05
19 *813:A2 *150:12 0
20 *813:A2 *283:34 9.73703e-05
21 *813:A2 *283:38 1.54556e-05
22 *824:A *282:31 8.00842e-05
23 *832:A_N *823:A2 0
24 *832:A_N *831:A 1.54556e-05
25 *832:A_N *831:B 0
26 *832:A_N *969:D 0
27 *832:A_N *334:6 7.92329e-05
28 *832:A_N *334:8 0.000435997
29 *832:A_N *395:32 0
30 *836:A_N *759:A 3.75762e-05
31 *836:A_N *831:B 0
32 *836:A_N *836:B 1.54008e-05
33 *135:10 *789:C 0
34 *135:10 *804:A1 7.93396e-05
35 *135:10 *248:10 0.000236327
36 *135:10 *388:37 0
37 *135:10 *447:56 0
38 *135:18 *789:C 0
39 *135:18 *811:B 0.000112716
40 *135:18 *819:B1 0
41 *135:18 *861:A2 4.77425e-05
42 *135:18 *1067:A 0
43 *135:18 *138:51 0
44 *135:18 *138:64 0
45 *135:18 *148:14 0
46 *135:18 *290:16 0
47 *135:18 *325:10 0
48 *135:18 *346:10 0.000274397
49 *135:28 *137:52 2.25909e-05
50 *135:28 *138:34 0.000501773
51 *135:28 *285:29 0.000398084
52 *135:28 *440:27 0
53 *135:28 *442:8 0.000287672
54 *135:34 *816:B1 1.54008e-05
55 *135:34 *285:29 0.000341119
56 *135:34 *439:25 0.00012816
57 *135:50 *816:B1 0
58 *135:50 *822:B 0
59 *135:50 *828:A2 0
60 *135:50 *150:12 8.02924e-05
61 *135:50 *283:28 0
62 *135:50 *323:36 0.000181192
63 *135:50 *439:25 0.000550484
64 *135:58 *809:B 4.77425e-05
65 *135:58 *140:8 7.51285e-05
66 *135:58 *150:12 0
67 *135:58 *323:36 0.000159511
68 *135:58 *439:25 0
69 *135:64 *759:A 0
70 *135:64 *823:A2 0
71 *135:64 *834:A 0
72 *135:64 *839:A2 0.000122871
73 *135:64 *147:10 0
74 *135:64 *323:36 7.52149e-05
75 *135:117 *809:B 0
76 *135:117 *838:B 0
77 *135:117 *842:B 0
78 *135:117 *843:A1 0.000147156
79 *135:117 *843:A2 0
80 *135:117 *139:10 0
81 *135:117 *147:10 0
82 *135:117 *149:33 0
83 *135:117 *150:23 0
84 *135:117 *151:8 0
85 *135:117 *153:10 0
86 *135:117 *157:10 0
87 *135:117 *164:8 0
88 *135:117 *167:10 4.77866e-05
89 *135:117 *328:6 0
90 *135:117 *445:12 1.54556e-05
91 *1116:A *813:A2 0
92 *24:26 *832:A_N 0
93 *24:26 *135:58 0
94 *24:26 *135:117 0
95 *44:12 *135:50 0.000125464
96 *45:8 *135:64 0
97 *91:8 *135:28 0
98 *118:8 *135:10 0
99 *133:12 *135:10 0
100 *133:16 *135:10 0.000235715
101 *133:58 *135:18 4.78688e-05
*RES
1 *804:Y *135:10 43.7904 
2 *135:10 *135:18 48.4254 
3 *135:18 *135:28 46.489 
4 *135:28 *135:34 22.1218 
5 *135:34 *135:50 44.9749 
6 *135:50 *135:58 22.6574 
7 *135:58 *135:64 23.8522 
8 *135:64 *836:A_N 22.7501 
9 *135:64 *832:A_N 23.7801 
10 *135:58 *135:90 20 
11 *135:90 *818:A_N 20.3193 
12 *135:90 *135:117 47.967 
13 *135:117 *842:A 20 
14 *135:50 *813:A2 21.6171 
15 *135:34 *816:A2 20 
16 *135:28 *824:A 40.5356 
*END

*D_NET *136 0.00594542
*CONN
*I *812:B I *D sg13cmos5l_nor3_1
*I *815:A1 I *D sg13cmos5l_o21ai_1
*I *820:A_N I *D sg13cmos5l_nand2b_1
*I *827:B1 I *D sg13cmos5l_o21ai_1
*I *805:X O *D sg13cmos5l_and2_1
*CAP
1 *812:B 0
2 *815:A1 0.000331608
3 *820:A_N 0
4 *827:B1 0.000330094
5 *805:X 0.000289176
6 *136:57 0.000241727
7 *136:40 0.00102
8 *136:31 0.000956945
9 *136:8 0.00112955
10 *815:A1 *815:B1 0
11 *815:A1 *815:A2 0
12 *815:A1 *282:31 0
13 *815:A1 *283:10 0
14 *827:B1 *866:B1 0
15 *827:B1 *155:19 0
16 *827:B1 *155:40 0
17 *136:8 *156:10 0
18 *136:8 *281:10 0
19 *136:8 *448:35 7.53765e-05
20 *136:31 *807:A 0.000143865
21 *136:31 *820:B 0
22 *136:31 *137:42 3.13502e-05
23 *136:31 *137:52 0.000219344
24 *136:31 *138:6 0
25 *136:40 *815:B1 0
26 *136:40 *282:31 0
27 *136:40 *283:10 0
28 *136:57 *812:C 1.54008e-05
29 *136:57 *967:CLK 0.000715857
30 *136:57 *143:10 4.77425e-05
31 *136:57 *256:45 0
32 *43:8 *136:57 0
33 *96:8 *827:B1 0
34 *96:8 *136:8 0
35 *119:14 *136:8 0.00039738
*RES
1 *805:X *136:8 43.0694 
2 *136:8 *827:B1 42.8943 
3 *136:8 *136:31 25.1191 
4 *136:31 *820:A_N 20 
5 *136:31 *136:40 4.1303 
6 *136:40 *815:A1 22.8325 
7 *136:40 *136:57 43.6359 
8 *136:57 *812:B 20 
*END

*D_NET *137 0.00580648
*CONN
*I *819:B1 I *D sg13cmos5l_a22oi_1
*I *807:B I *D sg13cmos5l_nand2_1
*I *1067:A I *D sg13cmos5l_dlygate4sd3_1
*I *806:Y O *D sg13cmos5l_nor2_1
*CAP
1 *819:B1 0.000188437
2 *807:B 0
3 *1067:A 0.000102043
4 *806:Y 0.000826559
5 *137:52 0.000216211
6 *137:42 0.000839212
7 *137:34 0.000879015
8 *137:12 0.000484151
9 *819:B1 *148:14 4.77425e-05
10 *1067:A *789:C 0.000144491
11 *137:12 *148:97 0
12 *137:12 *248:10 0.000452539
13 *137:12 *254:27 0
14 *137:34 *787:A_N 0
15 *137:34 *806:A 0
16 *137:34 *806:B 0
17 *137:34 *1018:A 0
18 *137:34 *148:20 0
19 *137:34 *256:10 0
20 *137:34 *269:23 0.000288043
21 *137:34 *269:42 0.000402338
22 *137:34 *448:14 0
23 *137:42 *786:B_N 4.77425e-05
24 *137:42 *807:A 0
25 *137:42 *269:42 0
26 *137:52 *138:6 4.73807e-05
27 *137:52 *138:51 0
28 *137:52 *280:8 0.000130618
29 *119:8 *137:42 0.000144179
30 *125:12 *137:12 0
31 *133:16 *137:12 0.000292494
32 *135:18 *819:B1 0
33 *135:18 *1067:A 0
34 *135:28 *137:52 2.25909e-05
35 *136:31 *137:42 3.13502e-05
36 *136:31 *137:52 0.000219344
*RES
1 *806:Y *137:12 44.2333 
2 *137:12 *1067:A 40.9682 
3 *806:Y *137:34 44.3878 
4 *137:34 *137:42 24.017 
5 *137:42 *137:52 42.3484 
6 *137:52 *807:B 20 
7 *137:42 *819:B1 21.5621 
*END

*D_NET *138 0.00949951
*CONN
*I *918:B I *D sg13cmos5l_nand2_1
*I *917:B I *D sg13cmos5l_and2_1
*I *811:A I *D sg13cmos5l_nor2_1
*I *861:A1 I *D sg13cmos5l_o21ai_1
*I *828:B2 I *D sg13cmos5l_a22oi_1
*I *820:B I *D sg13cmos5l_nand2b_1
*I *807:Y O *D sg13cmos5l_nand2_1
*CAP
1 *918:B 6.63188e-05
2 *917:B 0.000508479
3 *811:A 0
4 *861:A1 7.15104e-05
5 *828:B2 0
6 *820:B 0.000222889
7 *807:Y 0
8 *138:64 0.00124166
9 *138:51 0.00100078
10 *138:34 0.000580818
11 *138:23 0.000184254
12 *138:6 0.000489147
13 *138:4 0.000257396
14 *820:B *149:12 9.48543e-05
15 *820:B *282:31 0
16 *861:A1 *861:A2 0.000112426
17 *917:B *964:B 0.000336005
18 *917:B *388:6 0
19 *917:B *388:12 0
20 *918:B *388:6 0
21 *918:B *388:12 5.4817e-05
22 *138:6 *807:A 0.000124901
23 *138:23 *824:B_N 4.77425e-05
24 *138:23 *828:B1 0
25 *138:23 *828:A2 4.77866e-05
26 *138:23 *141:16 0
27 *138:23 *149:12 0
28 *138:23 *280:8 0.000266594
29 *138:23 *280:10 7.51285e-05
30 *138:23 *440:27 0
31 *138:34 *861:A2 0.00071463
32 *138:51 *811:B 0
33 *138:51 *861:A2 4.77425e-05
34 *138:51 *156:10 0
35 *138:51 *442:8 0
36 *138:64 *811:B 0
37 *138:64 *142:10 0.000208845
38 *138:64 *269:64 0.00023464
39 *138:64 *270:10 0
40 *802:A *917:B 0
41 *917:A *917:B 0
42 *918:A *138:64 0.000607819
43 *125:16 *917:B 0.000175853
44 *125:26 *917:B 4.77425e-05
45 *125:26 *138:64 0.000128908
46 *131:6 *917:B 0
47 *131:8 *917:B 0
48 *133:58 *138:51 0.000144549
49 *133:58 *138:64 0.000856126
50 *135:18 *138:51 0
51 *135:18 *138:64 0
52 *135:28 *138:34 0.000501773
53 *136:31 *820:B 0
54 *136:31 *138:6 0
55 *137:52 *138:6 4.73807e-05
56 *137:52 *138:51 0
*RES
1 *807:Y *138:4 20 
2 *138:4 *138:6 0.9682 
3 *138:6 *820:B 21.9673 
4 *138:6 *138:23 42.1218 
5 *138:23 *828:B2 20 
6 *138:4 *138:34 43.3166 
7 *138:34 *861:A1 20.7519 
8 *138:34 *138:51 43.0591 
9 *138:51 *811:A 20 
10 *138:51 *138:64 48.549 
11 *138:64 *917:B 25.253 
12 *138:64 *918:B 20.8137 
*END

*D_NET *139 0.00261549
*CONN
*I *827:A1 I *D sg13cmos5l_o21ai_1
*I *810:C I *D sg13cmos5l_nor4_1
*I *808:X O *D sg13cmos5l_or4_1
*CAP
1 *827:A1 0.000101264
2 *810:C 0.000229565
3 *808:X 0.000680588
4 *139:10 0.00101142
5 *810:C *810:D 4.77425e-05
6 *810:C *1077:A 0
7 *810:C *141:16 0
8 *810:C *256:45 0
9 *827:A1 *866:B1 0
10 *827:A1 *153:10 0
11 *139:10 *808:A 0
12 *139:10 *866:B1 0
13 *139:10 *148:30 0
14 *139:10 *150:31 0
15 *139:10 *151:8 0
16 *139:10 *164:8 0
17 *139:10 *328:21 0
18 *139:10 *443:33 0.00012816
19 *93:8 *139:10 0.000234224
20 *96:8 *827:A1 0.000182524
21 *135:117 *139:10 0
*RES
1 *808:X *139:10 47.0658 
2 *139:10 *810:C 42.0497 
3 *139:10 *827:A1 41.339 
*END

*D_NET *140 0.00188799
*CONN
*I *810:D I *D sg13cmos5l_nor4_1
*I *809:Y O *D sg13cmos5l_nand2b_1
*CAP
1 *810:D 0.000178467
2 *809:Y 0.000253628
3 *140:8 0.000432095
4 *810:D *810:A 0
5 *810:D *256:45 0.000272878
6 *140:8 *834:A 0
7 *140:8 *285:29 0.000181192
8 *140:8 *439:25 0.000446855
9 *140:8 *440:27 0
10 *810:C *810:D 4.77425e-05
11 *135:58 *140:8 7.51285e-05
*RES
1 *809:Y *140:8 43.0694 
2 *140:8 *810:D 41.8334 
*END

*D_NET *141 0.00367141
*CONN
*I *1077:A I *D sg13cmos5l_dlygate4sd3_1
*I *861:A2 I *D sg13cmos5l_o21ai_1
*I *810:Y O *D sg13cmos5l_nor4_1
*CAP
1 *1077:A 0.000165921
2 *861:A2 0.000579686
3 *810:Y 5.26111e-05
4 *141:16 0.00103007
5 *141:8 0.000337074
6 *861:A2 *156:10 0
7 *861:A2 *280:8 0
8 *1077:A *827:A2 0
9 *1077:A *828:B1 0
10 *1077:A *156:10 0.000111416
11 *141:8 *149:12 0.000128547
12 *141:8 *280:16 0
13 *141:16 *810:A 8.0216e-05
14 *141:16 *824:B_N 0
15 *141:16 *828:A1 0.000183242
16 *141:16 *150:31 8.00842e-05
17 *141:16 *153:10 0
18 *141:16 *156:10 0
19 *141:16 *280:10 0
20 *141:16 *280:12 0
21 *810:C *1077:A 0
22 *810:C *141:16 0
23 *861:A1 *861:A2 0.000112426
24 *135:18 *861:A2 4.77425e-05
25 *138:23 *141:16 0
26 *138:34 *861:A2 0.00071463
27 *138:51 *861:A2 4.77425e-05
*RES
1 *810:Y *141:8 40.5974 
2 *141:8 *141:16 43.2033 
3 *141:16 *861:A2 46.3345 
4 *141:16 *1077:A 41.7819 
*END

*D_NET *142 0.00263747
*CONN
*I *1078:A I *D sg13cmos5l_dlygate4sd3_1
*I *811:Y O *D sg13cmos5l_nor2_1
*CAP
1 *1078:A 0
2 *811:Y 0.000365795
3 *142:10 0.000365795
4 *142:10 *793:A 0.000130621
5 *142:10 *811:B 4.78028e-05
6 *142:10 *305:36 0.000717493
7 *142:10 *447:10 0.000801118
8 *121:8 *142:10 0
9 *138:64 *142:10 0.000208845
*RES
1 *811:Y *142:10 45.7062 
2 *142:10 *1078:A 40 
*END

*D_NET *143 0.00129311
*CONN
*I *813:B1 I *D sg13cmos5l_a21oi_1
*I *812:Y O *D sg13cmos5l_nor3_1
*CAP
1 *813:B1 0
2 *812:Y 0.000510103
3 *143:10 0.000510103
4 *143:10 *812:A 1.54008e-05
5 *143:10 *816:B1 0.000209763
6 *143:10 *967:CLK 0
7 *143:10 *256:45 0
8 *143:10 *441:8 0
9 *43:8 *143:10 0
10 *136:57 *143:10 4.77425e-05
*RES
1 *812:Y *143:10 44.9028 
2 *143:10 *813:B1 40 
*END

*D_NET *144 0.00192261
*CONN
*I *815:B1 I *D sg13cmos5l_o21ai_1
*I *814:X O *D sg13cmos5l_xor2_1
*CAP
1 *815:B1 0.000889783
2 *814:X 0.000889783
3 *815:B1 *814:B 4.77866e-05
4 *815:B1 *814:A 0
5 *815:B1 *815:A2 1.49483e-05
6 *815:B1 *967:RESET_B 0
7 *815:A1 *815:B1 0
8 *1080:A *815:B1 8.03089e-05
9 *136:40 *815:B1 0
*RES
1 *814:X *815:B1 48.6829 
*END

*D_NET *145 0.0021478
*CONN
*I *816:B1 I *D sg13cmos5l_o21ai_1
*I *815:Y O *D sg13cmos5l_o21ai_1
*CAP
1 *816:B1 0.000690065
2 *815:Y 0.000143176
3 *145:8 0.000833241
4 *816:B1 *810:A 0
5 *816:B1 *812:A 8.0216e-05
6 *816:B1 *812:C 0
7 *816:B1 *815:A2 0
8 *816:B1 *282:31 0
9 *816:B1 *439:8 1.54556e-05
10 *816:B1 *439:25 8.03089e-05
11 *145:8 *812:C 0
12 *145:8 *815:A2 0
13 *44:12 *816:B1 8.01773e-05
14 *135:34 *816:B1 1.54008e-05
15 *135:50 *816:B1 0
16 *143:10 *816:B1 0.000209763
*RES
1 *815:Y *145:8 41.5862 
2 *145:8 *816:B1 47.313 
*END

*D_NET *146 0.00140479
*CONN
*I *823:B1 I *D sg13cmos5l_a21oi_1
*I *817:Y O *D sg13cmos5l_a21oi_1
*CAP
1 *823:B1 0
2 *817:Y 0.000694697
3 *146:12 0.000694697
4 *146:12 *969:CLK 0
5 *146:12 *283:38 0
6 *146:12 *323:36 0
7 *146:12 *395:32 0
8 *813:A2 *146:12 1.54008e-05
9 *24:26 *146:12 0
10 *45:8 *146:12 0
*RES
1 *817:Y *146:12 47.0143 
2 *146:12 *823:B1 40 
*END

*D_NET *147 0.00122191
*CONN
*I *823:A1 I *D sg13cmos5l_a21oi_1
*I *818:Y O *D sg13cmos5l_nand2b_1
*CAP
1 *823:A1 0.00017274
2 *818:Y 0.000284603
3 *147:10 0.000457343
4 *823:A1 *823:A2 0.000307226
5 *147:10 *395:32 0
6 *24:26 *823:A1 0
7 *24:26 *147:10 0
8 *45:8 *147:10 0
9 *135:64 *147:10 0
10 *135:117 *147:10 0
*RES
1 *818:Y *147:10 42.5853 
2 *147:10 *823:A1 42.0497 
*END

*D_NET *148 0.0112398
*CONN
*I *962:C I *D sg13cmos5l_nand3_1
*I *847:C I *D sg13cmos5l_nand3_1
*I *865:B1 I *D sg13cmos5l_o21ai_1
*I *843:A1 I *D sg13cmos5l_o21ai_1
*I *841:A_N I *D sg13cmos5l_nand2b_1
*I *845:B I *D sg13cmos5l_nor3_1
*I *819:Y O *D sg13cmos5l_a22oi_1
*CAP
1 *962:C 0
2 *847:C 0
3 *865:B1 0.000274244
4 *843:A1 8.74987e-05
5 *841:A_N 2.16058e-05
6 *845:B 0
7 *819:Y 0.000454452
8 *148:97 0.00021919
9 *148:82 0.000568507
10 *148:44 0.000769827
11 *148:36 0.00105659
12 *148:30 0.000961572
13 *148:20 0.00168755
14 *148:14 0.00160816
15 *841:A_N *841:B 4.77702e-05
16 *841:A_N *844:A 3.23694e-05
17 *843:A1 *843:A2 1.54008e-05
18 *843:A1 *1121:A 0
19 *865:B1 *775:A 0
20 *865:B1 *865:A2 1.54556e-05
21 *865:B1 *866:A2 0
22 *865:B1 *976:CLK 0
23 *148:14 *789:B 8.00842e-05
24 *148:14 *789:C 1.54008e-05
25 *148:14 *269:12 0
26 *148:14 *448:35 0.000112426
27 *148:20 *763:A 0
28 *148:20 *976:CLK 0
29 *148:20 *181:8 0
30 *148:20 *256:10 0
31 *148:20 *269:23 0
32 *148:30 *866:A2 0
33 *148:30 *866:B1 8.03692e-05
34 *148:30 *256:45 0
35 *148:30 *445:12 0
36 *148:36 *841:B 0.000155407
37 *148:36 *844:A 4.77425e-05
38 *148:36 *1121:A 0
39 *148:36 *167:10 0
40 *148:36 *328:21 0
41 *148:44 *841:B 0
42 *148:44 *845:C 0.000177307
43 *148:44 *846:A2 0.000554491
44 *148:44 *167:10 7.51285e-05
45 *148:44 *169:10 0.00121307
46 *148:44 *255:12 0
47 *148:44 *395:10 0
48 *148:82 *806:A 0
49 *148:82 *269:8 2.18151e-05
50 *148:82 *269:12 0.00026975
51 *148:97 *787:B 0
52 *148:97 *254:35 0
53 *792:B *148:20 0
54 *819:B1 *148:14 4.77425e-05
55 *819:A1 *148:14 2.18151e-05
56 *847:B *148:82 1.54008e-05
57 *847:B *148:97 4.77425e-05
58 *980:D *865:B1 0
59 *980:D *148:30 0
60 *24:26 *148:30 0
61 *121:30 *148:14 0.000110488
62 *121:30 *148:82 6.36001e-05
63 *121:57 *148:82 2.07911e-05
64 *126:35 *148:97 1.2706e-05
65 *133:26 *148:97 0.0001292
66 *135:18 *148:14 0
67 *135:117 *843:A1 0.000147156
68 *137:12 *148:97 0
69 *137:34 *148:20 0
70 *139:10 *148:30 0
*RES
1 *819:Y *148:14 24.7174 
2 *148:14 *148:20 47.2718 
3 *148:20 *148:30 26.283 
4 *148:30 *148:36 22.3381 
5 *148:36 *148:44 49.6305 
6 *148:44 *845:B 20 
7 *148:36 *841:A_N 20.3193 
8 *148:30 *843:A1 40.9682 
9 *148:20 *865:B1 22.6986 
10 *148:14 *148:82 3.8522 
11 *148:82 *847:C 20 
12 *148:82 *148:97 42.4102 
13 *148:97 *962:C 20 
*END

*D_NET *149 0.00624484
*CONN
*I *822:A I *D sg13cmos5l_nand2_1
*I *838:A I *D sg13cmos5l_nand2_1
*I *834:A I *D sg13cmos5l_nand2_1
*I *820:Y O *D sg13cmos5l_nand2b_1
*CAP
1 *822:A 0
2 *838:A 0
3 *834:A 0.000602035
4 *820:Y 0.000538943
5 *149:33 0.000104893
6 *149:27 0.000197612
7 *149:12 0.0012337
8 *834:A *831:B 0
9 *834:A *839:A2 0
10 *834:A *157:10 0.000694792
11 *834:A *157:12 0.000586331
12 *834:A *157:14 0.000181192
13 *834:A *162:10 0
14 *149:12 *157:10 0.000236081
15 *149:12 *280:16 0
16 *149:12 *440:27 0.00130508
17 *149:33 *151:8 0.000340789
18 *820:B *149:12 9.48543e-05
19 *1124:A *834:A 0
20 *135:64 *834:A 0
21 *135:117 *149:33 0
22 *138:23 *149:12 0
23 *140:8 *834:A 0
24 *141:8 *149:12 0.000128547
*RES
1 *820:Y *149:12 47.277 
2 *149:12 *834:A 47.9619 
3 *149:12 *149:27 20.7519 
4 *149:27 *149:33 41.5862 
5 *149:33 *838:A 20 
6 *149:27 *822:A 20 
*END

*D_NET *150 0.00382754
*CONN
*I *825:B I *D sg13cmos5l_or2_1
*I *826:B I *D sg13cmos5l_nand2_1
*I *822:B I *D sg13cmos5l_nand2_1
*I *821:Y O *D sg13cmos5l_nand3_1
*CAP
1 *825:B 0
2 *826:B 0
3 *822:B 6.94525e-05
4 *821:Y 9.71184e-05
5 *150:31 0.000344306
6 *150:23 0.000408593
7 *150:12 0.000869303
8 *150:8 0.000832682
9 *822:B *439:25 0
10 *150:12 *830:D 0.000272938
11 *150:12 *157:10 0.000143171
12 *150:12 *283:34 0.000112651
13 *150:12 *283:38 0.000501495
14 *150:12 *323:10 0
15 *150:12 *323:30 0
16 *150:23 *830:D 1.54556e-05
17 *150:23 *256:45 0
18 *150:31 *153:10 0
19 *150:31 *280:12 0
20 *150:31 *280:16 0
21 *813:A2 *150:12 0
22 *135:50 *822:B 0
23 *135:50 *150:12 8.02924e-05
24 *135:58 *150:12 0
25 *135:117 *150:23 0
26 *139:10 *150:31 0
27 *141:16 *150:31 8.00842e-05
*RES
1 *821:Y *150:8 40.8446 
2 *150:8 *150:12 27.2409 
3 *150:12 *822:B 20.8446 
4 *150:12 *150:23 0.8858 
5 *150:23 *150:31 43.1106 
6 *150:31 *826:B 20 
7 *150:23 *825:B 20 
*END

*D_NET *151 0.00309607
*CONN
*I *823:A2 I *D sg13cmos5l_a21oi_1
*I *822:Y O *D sg13cmos5l_nand2_1
*CAP
1 *823:A2 0.000372462
2 *822:Y 0.000222072
3 *151:8 0.000594534
4 *823:A2 *837:C 4.77425e-05
5 *823:A2 *839:A2 0.000241165
6 *823:A2 *1125:A 0
7 *151:8 *157:10 0.000766707
8 *151:8 *157:12 7.51285e-05
9 *151:8 *164:8 0
10 *151:8 *332:30 0.000128248
11 *823:A1 *823:A2 0.000307226
12 *832:A_N *823:A2 0
13 *24:26 *823:A2 0
14 *135:64 *823:A2 0
15 *135:117 *151:8 0
16 *139:10 *151:8 0
17 *149:33 *151:8 0.000340789
*RES
1 *822:Y *151:8 43.811 
2 *151:8 *823:A2 43.7801 
*END

*D_NET *152 0.00357439
*CONN
*I *829:A I *D sg13cmos5l_or2_1
*I *824:Y O *D sg13cmos5l_nor2b_1
*CAP
1 *829:A 0.000521829
2 *824:Y 0.000494604
3 *152:8 0.00101643
4 *829:A *776:A 0
5 *829:A *979:CLK 0
6 *829:A *259:44 0
7 *829:A *285:10 0
8 *829:A *398:12 0
9 *152:8 *814:A 0
10 *152:8 *283:28 0
11 *152:8 *284:8 0
12 *152:8 *285:10 0
13 *790:A *829:A 0
14 *44:12 *152:8 0.0012996
15 *46:10 *829:A 0.000241924
*RES
1 *824:Y *152:8 47.0246 
2 *152:8 *829:A 45.2324 
*END

*D_NET *153 0.00226161
*CONN
*I *827:A2 I *D sg13cmos5l_o21ai_1
*I *828:A1 I *D sg13cmos5l_a22oi_1
*I *825:X O *D sg13cmos5l_or2_1
*CAP
1 *827:A2 5.78669e-05
2 *828:A1 0.000306167
3 *825:X 0.000372464
4 *153:10 0.000736498
5 *828:A1 *828:B1 0.000176823
6 *828:A1 *282:31 0.000192994
7 *153:10 *256:45 0
8 *827:A1 *153:10 0
9 *1077:A *827:A2 0
10 *96:8 *828:A1 0
11 *96:8 *153:10 0.000235556
12 *135:117 *153:10 0
13 *141:16 *828:A1 0.000183242
14 *141:16 *153:10 0
15 *150:31 *153:10 0
*RES
1 *825:X *153:10 43.7595 
2 *153:10 *828:A1 43.4145 
3 *153:10 *827:A2 40.5356 
*END

*D_NET *154 0.000285786
*CONN
*I *828:A2 I *D sg13cmos5l_a22oi_1
*I *826:Y O *D sg13cmos5l_nand2_1
*CAP
1 *828:A2 0.000119
2 *826:Y 0.000119
3 *828:A2 *828:B1 0
4 *828:A2 *862:B 0
5 *828:A2 *156:10 0
6 *135:50 *828:A2 0
7 *138:23 *828:A2 4.77866e-05
*RES
1 *826:Y *828:A2 41.3802 
*END

*D_NET *155 0.00808286
*CONN
*I *966:A I *D sg13cmos5l_nand3_1
*I *864:B1 I *D sg13cmos5l_o21ai_1
*I *828:B1 I *D sg13cmos5l_a22oi_1
*I *862:B I *D sg13cmos5l_and2_1
*I *827:Y O *D sg13cmos5l_o21ai_1
*CAP
1 *966:A 0.000780273
2 *864:B1 8.56662e-05
3 *828:B1 0.000279609
4 *862:B 0.000211453
5 *827:Y 0
6 *155:40 0.00144123
7 *155:19 0.00100789
8 *155:4 0.000364442
9 *828:B1 *763:A 0
10 *828:B1 *156:10 0.000208983
11 *828:B1 *282:31 0.000209071
12 *862:B *763:A 8.02485e-05
13 *862:B *775:A 1.54008e-05
14 *862:B *282:31 0
15 *864:B1 *864:A2 0.00014447
16 *966:A *966:B 0.000242236
17 *966:A *979:CLK 0.000467914
18 *966:A *259:44 0
19 *966:A *305:26 0.000766152
20 *966:A *440:12 1.54556e-05
21 *966:A *440:27 0
22 *966:A *447:8 0
23 *155:19 *282:31 0
24 *155:40 *281:10 0.000129547
25 *155:40 *305:26 0.000462168
26 *155:40 *305:36 0
27 *790:A *864:B1 1.54556e-05
28 *827:B1 *155:19 0
29 *827:B1 *155:40 0
30 *828:A2 *828:B1 0
31 *828:A2 *862:B 0
32 *828:A1 *828:B1 0.000176823
33 *862:A *862:B 8.00842e-05
34 *1077:A *828:B1 0
35 *55:10 *864:B1 7.9556e-05
36 *55:10 *966:A 0
37 *121:8 *155:40 0.000818729
38 *138:23 *828:B1 0
*RES
1 *827:Y *155:4 20 
2 *155:4 *862:B 22.4926 
3 *155:4 *155:19 21.6274 
4 *155:19 *828:B1 43.3681 
5 *155:19 *155:40 7.0246 
6 *155:40 *864:B1 40.9682 
7 *155:40 *966:A 48.8786 
*END

*D_NET *156 0.00280377
*CONN
*I *829:B I *D sg13cmos5l_or2_1
*I *828:Y O *D sg13cmos5l_a22oi_1
*CAP
1 *829:B 0
2 *828:Y 0.000829054
3 *156:10 0.000829054
4 *156:10 *281:10 0
5 *156:10 *290:16 0
6 *156:10 *305:26 0
7 *156:10 *442:8 0
8 *828:B1 *156:10 0.000208983
9 *828:A2 *156:10 0
10 *861:A2 *156:10 0
11 *1077:A *156:10 0.000111416
12 *96:8 *156:10 0.000825262
13 *119:14 *156:10 0
14 *136:8 *156:10 0
15 *138:51 *156:10 0
16 *141:16 *156:10 0
*RES
1 *828:Y *156:10 49.4142 
2 *156:10 *829:B 40 
*END

*D_NET *157 0.00892007
*CONN
*I *837:C I *D sg13cmos5l_nand3_1
*I *831:B I *D sg13cmos5l_nor2_1
*I *840:D I *D sg13cmos5l_nand4_1
*I *833:B I *D sg13cmos5l_nand2_1
*I *830:X O *D sg13cmos5l_and4_1
*CAP
1 *837:C 5.64915e-05
2 *831:B 0.000859583
3 *840:D 0.000252035
4 *833:B 0.000370265
5 *830:X 0.000293931
6 *157:14 0.000768773
7 *157:12 0.00122354
8 *157:10 0.000567909
9 *831:B *831:A 0
10 *831:B *835:A2 0.000370382
11 *831:B *835:B1 0.00033959
12 *831:B *836:B 8.02434e-05
13 *831:B *159:10 0
14 *831:B *162:10 0.000144091
15 *831:B *255:22 0
16 *831:B *332:6 0
17 *831:B *395:20 0
18 *831:B *395:32 0
19 *833:B *160:12 1.54008e-05
20 *833:B *255:22 0.000209637
21 *833:B *333:10 0.00023464
22 *833:B *395:18 0
23 *837:C *839:A2 0
24 *840:D *1123:A 0
25 *840:D *162:10 0
26 *840:D *328:21 1.54008e-05
27 *840:D *443:8 0
28 *840:D *444:8 0.000241979
29 *157:12 *162:10 0
30 *157:12 *332:30 0
31 *157:14 *839:A2 0
32 *157:14 *160:12 0
33 *823:A2 *837:C 4.77425e-05
34 *832:A_N *831:B 0
35 *834:A *831:B 0
36 *834:A *157:10 0.000694792
37 *834:A *157:12 0.000586331
38 *834:A *157:14 0.000181192
39 *836:A_N *831:B 0
40 *971:D *831:B 0
41 *1124:A *840:D 0.000145031
42 *48:8 *157:14 0
43 *135:117 *157:10 0
44 *149:12 *157:10 0.000236081
45 *150:12 *157:10 0.000143171
46 *151:8 *157:10 0.000766707
47 *151:8 *157:12 7.51285e-05
*RES
1 *830:X *157:10 45.2736 
2 *157:10 *157:12 2.8222 
3 *157:12 *157:14 1.8334 
4 *157:14 *833:B 44.4702 
5 *157:14 *840:D 42.6986 
6 *157:12 *831:B 48.755 
7 *157:10 *837:C 40.5356 
*END

*D_NET *158 0.000937083
*CONN
*I *835:B1 I *D sg13cmos5l_a21oi_1
*I *831:Y O *D sg13cmos5l_nor2_1
*CAP
1 *835:B1 0.000298747
2 *831:Y 0.000298747
3 *835:B1 *835:A2 0
4 *831:B *835:B1 0.00033959
*RES
1 *831:Y *835:B1 43.5432 
*END

*D_NET *159 0.000431743
*CONN
*I *835:A1 I *D sg13cmos5l_a21oi_1
*I *832:Y O *D sg13cmos5l_nand2b_1
*CAP
1 *835:A1 0
2 *832:Y 0.000208171
3 *159:10 0.000208171
4 *159:10 *334:8 0
5 *831:B *159:10 0
6 *971:D *159:10 1.54008e-05
7 *47:8 *159:10 0
*RES
1 *832:Y *159:10 41.8746 
2 *159:10 *835:A1 40 
*END

*D_NET *160 0.00277861
*CONN
*I *839:A2 I *D sg13cmos5l_a22oi_1
*I *834:B I *D sg13cmos5l_nand2_1
*I *833:Y O *D sg13cmos5l_nand2_1
*CAP
1 *839:A2 0.000496903
2 *834:B 0
3 *833:Y 0.000399129
4 *160:12 0.000896031
5 *839:A2 *759:A 0
6 *839:A2 *334:30 0
7 *839:A2 *395:18 0
8 *160:12 *255:12 0
9 *160:12 *255:22 0.000607109
10 *160:12 *334:30 0
11 *160:12 *395:18 0
12 *160:12 *443:8 0
13 *823:A2 *839:A2 0.000241165
14 *833:B *160:12 1.54008e-05
15 *834:A *839:A2 0
16 *837:C *839:A2 0
17 *839:A1 *839:A2 0
18 *135:64 *839:A2 0.000122871
19 *157:14 *839:A2 0
20 *157:14 *160:12 0
*RES
1 *833:Y *160:12 45.1603 
2 *160:12 *834:B 40 
3 *160:12 *839:A2 44.3412 
*END

*D_NET *161 0.00111209
*CONN
*I *835:A2 I *D sg13cmos5l_a21oi_1
*I *834:Y O *D sg13cmos5l_nand2_1
*CAP
1 *835:A2 0.000370853
2 *834:Y 0.000370853
3 *835:A2 *255:22 0
4 *831:B *835:A2 0.000370382
5 *835:B1 *835:A2 0
*RES
1 *834:Y *835:A2 44.1921 
*END

*D_NET *162 0.00127265
*CONN
*I *839:B1 I *D sg13cmos5l_a22oi_1
*I *836:Y O *D sg13cmos5l_nand2b_1
*CAP
1 *839:B1 0
2 *836:Y 0.000275689
3 *162:10 0.000275689
4 *162:10 *1123:A 0
5 *162:10 *332:6 0
6 *162:10 *332:30 0.00018128
7 *831:B *162:10 0.000144091
8 *834:A *162:10 0
9 *840:D *162:10 0
10 *1124:A *162:10 0
11 *48:8 *162:10 0.000395897
12 *157:12 *162:10 0
*RES
1 *836:Y *162:10 43.4505 
2 *162:10 *839:B1 40 
*END

*D_NET *163 0.000637269
*CONN
*I *838:B I *D sg13cmos5l_nand2_1
*I *843:A2 I *D sg13cmos5l_o21ai_1
*I *837:Y O *D sg13cmos5l_nand3_1
*CAP
1 *838:B 0.000121611
2 *843:A2 0.000181622
3 *837:Y 0
4 *163:4 0.000303234
5 *838:B *443:33 0
6 *843:A2 *443:33 0
7 *843:B1 *843:A2 1.54008e-05
8 *843:A1 *843:A2 1.54008e-05
9 *24:26 *838:B 0
10 *24:26 *843:A2 0
11 *135:117 *838:B 0
12 *135:117 *843:A2 0
*RES
1 *837:Y *163:4 20 
2 *163:4 *843:A2 21.6171 
3 *163:4 *838:B 21.2525 
*END

*D_NET *164 0.000636493
*CONN
*I *839:B2 I *D sg13cmos5l_a22oi_1
*I *838:Y O *D sg13cmos5l_nand2_1
*CAP
1 *839:B2 0
2 *838:Y 0.000201091
3 *164:8 0.000201091
4 *164:8 *332:30 0.000234311
5 *164:8 *443:12 0
6 *164:8 *443:33 0
7 *135:117 *164:8 0
8 *139:10 *164:8 0
9 *151:8 *164:8 0
*RES
1 *838:Y *164:8 42.3278 
2 *164:8 *839:B2 40 
*END

*D_NET *165 0.00346872
*CONN
*I *841:B I *D sg13cmos5l_nand2b_1
*I *845:C I *D sg13cmos5l_nor3_1
*I *840:Y O *D sg13cmos5l_nand4_1
*CAP
1 *841:B 0.00050167
2 *845:C 0.000415091
3 *840:Y 8.36527e-05
4 *165:8 0.00100041
5 *841:B *842:B 0
6 *841:B *846:A2 0.000554491
7 *841:B *167:10 0.000106064
8 *841:B *326:31 0.000234224
9 *841:B *328:21 0
10 *845:C *255:12 0.00017723
11 *845:C *326:12 0
12 *845:C *327:8 0
13 *165:8 *840:A 1.54008e-05
14 *165:8 *326:31 0
15 *165:8 *446:10 0
16 *841:A_N *841:B 4.77702e-05
17 *1119:A *165:8 0
18 *148:36 *841:B 0.000155407
19 *148:44 *841:B 0
20 *148:44 *845:C 0.000177307
*RES
1 *840:Y *165:8 40.7519 
2 *165:8 *845:C 44.0067 
3 *165:8 *841:B 46.0461 
*END

*D_NET *166 0.000245087
*CONN
*I *842:B I *D sg13cmos5l_nand2_1
*I *841:Y O *D sg13cmos5l_nand2b_1
*CAP
1 *842:B 9.86502e-05
2 *841:Y 9.86502e-05
3 *842:B *1121:A 0
4 *842:B *167:10 4.77866e-05
5 *841:B *842:B 0
6 *135:117 *842:B 0
*RES
1 *841:Y *842:B 41.133 
*END

*D_NET *167 0.00305097
*CONN
*I *844:A I *D sg13cmos5l_and2_1
*I *846:A2 I *D sg13cmos5l_a21o_1
*I *842:Y O *D sg13cmos5l_nand2_1
*CAP
1 *844:A 0.000426559
2 *846:A2 0.000111939
3 *842:Y 0.000197058
4 *167:10 0.000735556
5 *844:A *973:CLK 0
6 *844:A *1121:A 8.01118e-05
7 *844:A *329:10 0
8 *844:A *395:88 0
9 *844:A *445:12 0
10 *844:A *445:25 0
11 *846:A2 *326:31 1.69409e-05
12 *846:A2 *446:10 1.69409e-05
13 *167:10 *445:25 0
14 *841:B *846:A2 0.000554491
15 *841:B *167:10 0.000106064
16 *841:A_N *844:A 3.23694e-05
17 *842:B *167:10 4.77866e-05
18 *135:117 *167:10 4.77866e-05
19 *148:36 *844:A 4.77425e-05
20 *148:36 *167:10 0
21 *148:44 *846:A2 0.000554491
22 *148:44 *167:10 7.51285e-05
*RES
1 *842:Y *167:10 42.1527 
2 *167:10 *846:A2 42.6883 
3 *167:10 *844:A 44.3466 
*END

*D_NET *168 0.0007551
*CONN
*I *1121:A I *D sg13cmos5l_dlygate4sd3_1
*I *843:Y O *D sg13cmos5l_o21ai_1
*CAP
1 *1121:A 0.000232708
2 *843:Y 0.000232708
3 *1121:A *443:33 0
4 *1121:A *445:25 0.000209572
5 *842:B *1121:A 0
6 *843:A1 *1121:A 0
7 *844:A *1121:A 8.01118e-05
8 *148:36 *1121:A 0
*RES
1 *843:Y *1121:A 42.7398 
*END

*D_NET *169 0.0021655
*CONN
*I *846:B1 I *D sg13cmos5l_a21o_1
*I *845:Y O *D sg13cmos5l_nor3_1
*CAP
1 *846:B1 0
2 *845:Y 0.000476218
3 *169:10 0.000476218
4 *169:10 *395:6 0
5 *169:10 *395:10 0
6 *169:10 *395:58 0
7 *169:10 *395:69 0
8 *50:8 *169:10 0
9 *148:44 *169:10 0.00121307
*RES
1 *845:Y *169:10 46.4478 
2 *169:10 *846:B1 40 
*END

*D_NET *170 0.00615683
*CONN
*I *1041:A I *D sg13cmos5l_buf_1
*I *1040:A I *D sg13cmos5l_buf_1
*I *847:Y O *D sg13cmos5l_nand3_1
*CAP
1 *1041:A 0.000101667
2 *1040:A 0.000308351
3 *847:Y 0.000627522
4 *170:33 0.00137172
5 *170:14 0.00220592
6 *1040:A *794:A 0
7 *1040:A *384:21 0
8 *1040:A *403:20 0.000183355
9 *1040:A *449:14 0
10 *1041:A *982:D 0
11 *1041:A *387:91 8.00842e-05
12 *170:14 *785:A 0.000221687
13 *170:14 *787:A_N 0
14 *170:14 *248:10 0
15 *170:14 *269:8 0.000175513
16 *170:14 *384:21 0
17 *170:14 *384:23 0
18 *170:14 *403:20 0.000557435
19 *170:33 *186:18 0
20 *4:12 *170:33 0.00014814
21 *5:16 *170:33 0
22 *24:38 *170:14 0
23 *118:8 *170:14 0
24 *120:30 *1040:A 0.000175437
*RES
1 *847:Y *170:14 46.592 
2 *170:14 *1040:A 43.0282 
3 *170:14 *170:33 48.755 
4 *170:33 *1041:A 40.9682 
*END

*D_NET *171 0.00611834
*CONN
*I *852:S I *D sg13cmos5l_mux2_1
*I *849:A1 I *D sg13cmos5l_mux2_1
*I *860:A2 I *D sg13cmos5l_a21o_1
*I *856:A1 I *D sg13cmos5l_o21ai_1
*I *848:Y O *D sg13cmos5l_nand2b_1
*CAP
1 *852:S 0
2 *849:A1 0
3 *860:A2 1.20267e-05
4 *856:A1 0.000497871
5 *848:Y 0
6 *171:52 0.000245159
7 *171:42 0.000636477
8 *171:10 0.000840847
9 *171:8 0.00194249
10 *171:6 0.00122022
11 *856:A1 *856:A2 1.54008e-05
12 *856:A1 *1054:A 0
13 *856:A1 *255:62 8.0216e-05
14 *856:A1 *360:14 0
15 *856:A1 *401:32 0
16 *171:8 *796:B_N 0
17 *171:8 *186:10 0
18 *171:8 *206:16 0
19 *171:8 *206:59 0
20 *171:8 *251:8 0
21 *171:8 *251:10 0
22 *171:8 *251:16 0
23 *171:8 *302:28 0
24 *171:8 *307:32 0
25 *171:8 *360:14 0
26 *171:8 *389:30 0
27 *171:8 *389:34 0
28 *171:8 *389:78 0
29 *171:8 *401:32 0
30 *171:8 *401:93 7.65627e-05
31 *171:10 *401:32 0
32 *171:42 *849:A0 0
33 *171:42 *852:A0 0
34 *171:42 *852:A1 0
35 *171:42 *900:B 0
36 *171:42 *900:D 0
37 *171:42 *1127:A 0
38 *171:52 *852:A0 0
39 *171:52 *973:CLK 0
40 *171:52 *255:52 0
41 *171:52 *255:76 0
42 *171:52 *391:18 0.000342449
43 *171:52 *438:10 0
44 *912:A *171:8 0
45 *42:12 *856:A1 0
46 *42:12 *171:10 0
47 *42:16 *171:42 0.000208615
48 *53:8 *856:A1 0
*RES
1 *848:Y *171:6 40 
2 *171:6 *171:8 10.4854 
3 *171:8 *171:10 2.8222 
4 *171:10 *856:A1 44.5938 
5 *171:10 *860:A2 40.1133 
6 *171:8 *171:42 24.4702 
7 *171:42 *171:52 43.4299 
8 *171:52 *849:A1 20 
9 *171:42 *852:S 20 
*END

*D_NET *172 0.00174798
*CONN
*I *851:A2 I *D sg13cmos5l_a21oi_1
*I *850:Y O *D sg13cmos5l_nand2b_1
*CAP
1 *851:A2 0.00044831
2 *850:Y 0.00044831
3 *851:A2 *1052:A 0.000562314
4 *851:A2 *216:14 0
5 *42:33 *851:A2 8.00842e-05
6 *128:25 *851:A2 0.000208966
*RES
1 *850:Y *851:A2 44.7792 
*END

*D_NET *173 0.0011077
*CONN
*I *852:A0 I *D sg13cmos5l_mux2_1
*I *851:Y O *D sg13cmos5l_a21oi_1
*CAP
1 *852:A0 0.000165282
2 *851:Y 0.000210696
3 *173:8 0.000375978
4 *852:A0 *852:A1 1.54556e-05
5 *173:8 *391:103 0.000340288
6 *41:12 *852:A0 0
7 *171:42 *852:A0 0
8 *171:52 *852:A0 0
*RES
1 *851:Y *173:8 42.575 
2 *173:8 *852:A0 41.4008 
*END

*D_NET *174 0.00306611
*CONN
*I *856:B1 I *D sg13cmos5l_o21ai_1
*I *853:Y O *D sg13cmos5l_nand2_1
*CAP
1 *856:B1 0.000105484
2 *853:Y 0.000619636
3 *174:10 0.00072512
4 *856:B1 *856:A2 0.000176771
5 *856:B1 *394:26 0
6 *174:10 *853:A 7.96263e-05
7 *174:10 *176:10 0.00135947
8 *174:10 *216:56 0
9 *174:10 *219:54 0
10 *174:10 *360:14 0
*RES
1 *853:Y *174:10 48.0546 
2 *174:10 *856:B1 41.1845 
*END

*D_NET *175 0.00440565
*CONN
*I *876:A I *D sg13cmos5l_nor2_1
*I *883:C I *D sg13cmos5l_or4_1
*I *898:B I *D sg13cmos5l_nand3_1
*I *855:B I *D sg13cmos5l_nand2_1
*I *854:Y O *D sg13cmos5l_xnor2_1
*CAP
1 *876:A 0.000209539
2 *883:C 0
3 *898:B 0.000353774
4 *855:B 0.000170833
5 *854:Y 0.000189729
6 *175:43 8.09347e-05
7 *175:35 0.000406343
8 *175:10 0.000524607
9 *175:8 7.38596e-05
10 *855:B *179:16 0
11 *876:A *877:B 0.000112059
12 *876:A *901:B 0.000338114
13 *876:A *179:31 0
14 *876:A *191:6 0.000111027
15 *898:B *859:A 4.77425e-05
16 *898:B *898:C 8.01116e-05
17 *898:B *914:A2 0.000145025
18 *898:B *177:6 0
19 *898:B *177:23 0
20 *898:B *179:16 0
21 *898:B *179:31 0
22 *898:B *384:87 0
23 *175:8 *219:54 0.000394282
24 *175:8 *386:33 0.000394282
25 *175:35 *901:B 0.000177109
26 *175:35 *179:31 0
27 *175:35 *384:87 0
28 *175:43 *883:B 6.39133e-05
29 *175:43 *192:8 0.000234224
30 *175:43 *384:77 0.000234224
31 *175:43 *401:93 6.39133e-05
*RES
1 *854:Y *175:8 41.8334 
2 *175:8 *175:10 20 
3 *175:10 *855:B 21.4008 
4 *175:10 *898:B 23.399 
5 *854:Y *175:35 21.1845 
6 *175:35 *175:43 41.5192 
7 *175:43 *883:C 20 
8 *175:35 *876:A 22.266 
*END

*D_NET *176 0.00514189
*CONN
*I *911:A1 I *D sg13cmos5l_o21ai_1
*I *856:A2 I *D sg13cmos5l_o21ai_1
*I *855:Y O *D sg13cmos5l_nand2_1
*CAP
1 *911:A1 0.000571051
2 *856:A2 0.000152008
3 *855:Y 0.00028961
4 *176:12 0.000723058
5 *176:10 0.00028961
6 *856:A2 *255:62 0
7 *911:A1 *910:B1 0
8 *911:A1 *910:A1 0
9 *911:A1 *913:A 4.77702e-05
10 *911:A1 *913:B 0.000112563
11 *911:A1 *991:D 0
12 *911:A1 *205:22 0
13 *911:A1 *255:62 0
14 *911:A1 *394:26 0
15 *911:A1 *394:35 0
16 *911:A1 *394:44 0
17 *911:A1 *424:14 0
18 *176:10 *216:56 0.00135742
19 *176:10 *388:61 4.71556e-05
20 *856:B1 *856:A2 0.000176771
21 *856:A1 *856:A2 1.54008e-05
22 *174:10 *176:10 0.00135947
*RES
1 *855:Y *176:10 46.6023 
2 *176:10 *176:12 20 
3 *176:12 *856:A2 21.4008 
4 *176:12 *911:A1 26.1182 
*END

*D_NET *177 0.00328987
*CONN
*I *870:B I *D sg13cmos5l_nor2_1
*I *883:D I *D sg13cmos5l_or4_1
*I *915:A2 I *D sg13cmos5l_o21ai_1
*I *859:C I *D sg13cmos5l_nor3_1
*I *857:Y O *D sg13cmos5l_a21oi_1
*CAP
1 *870:B 0
2 *883:D 0.000217466
3 *915:A2 0.000161273
4 *859:C 0
5 *857:Y 6.37257e-05
6 *177:25 0.000378739
7 *177:23 0.000136781
8 *177:14 0.000236664
9 *177:6 0.000437171
10 *883:D *192:8 0.00023464
11 *883:D *209:8 0
12 *883:D *384:106 0.000106064
13 *915:A2 *209:8 0
14 *915:A2 *384:106 0.000522509
15 *177:6 *384:87 7.90177e-05
16 *177:14 *898:A 0.000177311
17 *177:14 *914:A2 7.96248e-05
18 *177:14 *179:31 0.000234224
19 *177:14 *384:87 4.78853e-05
20 *177:14 *384:106 0
21 *177:23 *870:A 3.23417e-05
22 *177:23 *898:C 0
23 *177:23 *384:87 7.96596e-05
24 *177:23 *384:94 6.4771e-05
25 *898:B *177:6 0
26 *898:B *177:23 0
*RES
1 *857:Y *177:6 20.5356 
2 *177:6 *177:14 42.7707 
3 *177:14 *859:C 20 
4 *177:6 *177:23 1.5347 
5 *177:23 *177:25 20 
6 *177:25 *915:A2 42.0806 
7 *177:25 *883:D 42.3278 
8 *177:23 *870:B 20 
*END

*D_NET *178 0.00143376
*CONN
*I *868:A2 I *D sg13cmos5l_o21ai_1
*I *858:Y O *D sg13cmos5l_nor2_1
*CAP
1 *868:A2 3.22067e-05
2 *858:Y 0.00028744
3 *178:8 0.000319647
4 *868:A2 *868:B1 4.77425e-05
5 *868:A2 *868:A1 7.31538e-06
6 *178:8 *184:8 0.000131027
7 *178:8 *213:24 0
8 *178:8 *302:14 0.000608383
9 *4:8 *868:A2 0
10 *58:10 *178:8 0
*RES
1 *858:Y *178:8 43.5638 
2 *178:8 *868:A2 40.3193 
*END

*D_NET *179 0.00352535
*CONN
*I *877:A I *D sg13cmos5l_nand2_1
*I *860:B1 I *D sg13cmos5l_a21o_1
*I *859:Y O *D sg13cmos5l_nor3_1
*CAP
1 *877:A 0
2 *860:B1 0
3 *859:Y 0
4 *179:31 0.000491994
5 *179:16 0.000545583
6 *179:4 0.00103758
7 *179:16 *860:A1 0.000272878
8 *179:16 *898:A 0
9 *179:16 *216:56 0.000446716
10 *179:16 *388:61 8.02434e-05
11 *179:31 *859:A 4.77425e-05
12 *179:31 *914:A2 4.77153e-05
13 *179:31 *384:87 4.77425e-05
14 *179:31 *386:33 0
15 *855:B *179:16 0
16 *876:A *179:31 0
17 *898:B *179:16 0
18 *898:B *179:31 0
19 *42:12 *179:16 0.000272939
20 *95:14 *179:31 0
21 *175:35 *179:31 0
22 *177:14 *179:31 0.000234224
*RES
1 *859:Y *179:4 20 
2 *179:4 *179:16 46.0976 
3 *179:16 *860:B1 20 
4 *179:4 *179:31 44.635 
5 *179:31 *877:A 20 
*END

*D_NET *180 0.00108196
*CONN
*I *864:A1 I *D sg13cmos5l_o21ai_1
*I *861:Y O *D sg13cmos5l_o21ai_1
*CAP
1 *864:A1 0.000428392
2 *861:Y 0.000428392
3 *864:A1 *864:A2 1.54556e-05
4 *790:A *864:A1 0
5 *133:58 *864:A1 0.000209725
*RES
1 *861:Y *864:A1 44.326 
*END

*D_NET *181 0.000786558
*CONN
*I *866:A1 I *D sg13cmos5l_a21o_1
*I *862:X O *D sg13cmos5l_and2_1
*CAP
1 *866:A1 2.52189e-05
2 *862:X 0.000123313
3 *181:8 0.000148532
4 *866:A1 *866:A2 4.77702e-05
5 *866:A1 *866:B1 4.79017e-05
6 *181:8 *763:A 0
7 *181:8 *866:B1 0.000393823
8 *148:20 *181:8 0
*RES
1 *862:X *181:8 41.8334 
2 *181:8 *866:A1 40.3193 
*END

*D_NET *182 0.000194152
*CONN
*I *1068:A I *D sg13cmos5l_dlygate4sd3_1
*I *863:Y O *D sg13cmos5l_a21oi_1
*CAP
1 *1068:A 9.70762e-05
2 *863:Y 9.70762e-05
3 *1068:A *863:B1 0
4 *1068:A *388:6 0
5 *1068:A *447:41 0
6 *109:12 *1068:A 0
*RES
1 *863:Y *1068:A 41.133 
*END

*D_NET *183 0.0010035
*CONN
*I *866:A2 I *D sg13cmos5l_a21o_1
*I *865:Y O *D sg13cmos5l_o21ai_1
*CAP
1 *866:A2 0.000477867
2 *865:Y 0.000477867
3 *866:A2 *775:A 0
4 *866:A2 *865:A2 0
5 *866:A2 *256:27 0
6 *866:A2 *256:45 0
7 *865:B1 *866:A2 0
8 *866:A1 *866:A2 4.77702e-05
9 *108:8 *866:A2 0
10 *148:30 *866:A2 0
*RES
1 *865:Y *866:A2 44.3569 
*END

*D_NET *184 0.00063293
*CONN
*I *869:B1 I *D sg13cmos5l_o21ai_1
*I *868:Y O *D sg13cmos5l_o21ai_1
*CAP
1 *869:B1 0
2 *868:Y 9.52243e-05
3 *184:8 9.52243e-05
4 *184:8 *213:24 0
5 *184:8 *342:18 2.21839e-05
6 *5:16 *184:8 0
7 *58:10 *184:8 0.000289271
8 *178:8 *184:8 0.000131027
*RES
1 *868:Y *184:8 41.5862 
2 *184:8 *869:B1 40 
*END

*D_NET *185 0.000298543
*CONN
*I *898:C I *D sg13cmos5l_nand3_1
*I *870:Y O *D sg13cmos5l_nor2_1
*CAP
1 *898:C 0.000109216
2 *870:Y 0.000109216
3 *898:B *898:C 8.01116e-05
4 *177:23 *898:C 0
*RES
1 *870:Y *898:C 41.133 
*END

*D_NET *186 0.012747
*CONN
*I *924:B I *D sg13cmos5l_nand4_1
*I *943:B I *D sg13cmos5l_nand4_1
*I *872:B I *D sg13cmos5l_nor2_1
*I *871:Y O *D sg13cmos5l_nor4_1
*CAP
1 *924:B 5.54999e-05
2 *943:B 0.000745456
3 *872:B 3.30319e-05
4 *871:Y 0.000104064
5 *186:47 0.000948249
6 *186:41 0.00130098
7 *186:24 0.000120423
8 *186:18 0.00186003
9 *186:10 0.000834023
10 *872:B *872:A 0
11 *872:B *314:24 4.77425e-05
12 *924:B *924:C 1.54008e-05
13 *943:B *938:D 0
14 *943:B *943:A 4.77425e-05
15 *943:B *1070:A 0
16 *943:B *1092:A 0.000111683
17 *943:B *1096:A 0
18 *943:B *234:10 0
19 *943:B *302:8 0
20 *943:B *343:12 0
21 *943:B *372:73 0
22 *943:B *375:68 6.46834e-05
23 *943:B *375:86 4.77425e-05
24 *943:B *375:100 0.000128542
25 *943:B *380:60 0.000338113
26 *186:10 *251:8 0.000181192
27 *186:10 *437:20 4.77425e-05
28 *186:10 *438:53 4.77425e-05
29 *186:10 *438:65 0.000234176
30 *186:18 *194:8 7.57915e-05
31 *186:18 *198:16 0.000705746
32 *186:18 *263:34 0
33 *186:18 *387:91 0.000128664
34 *186:24 *342:18 0.000146301
35 *186:41 *873:B1 0
36 *186:41 *933:A2 2.18115e-05
37 *186:41 *1188:A 0
38 *186:41 *193:21 0
39 *186:41 *194:8 0.000906976
40 *186:41 *263:34 0
41 *186:41 *355:32 0.0007175
42 *186:41 *383:52 0
43 *186:41 *387:91 0.000184912
44 *186:41 *401:68 0.000931423
45 *186:47 *934:A 0.000319854
46 *186:47 *202:54 0
47 *186:47 *383:54 0.000182387
48 *186:47 *383:81 0.000106258
49 *186:47 *401:68 0.000875764
50 *869:A1 *186:18 0.000129383
51 *5:16 *186:18 0
52 *40:12 *186:18 0
53 *40:12 *186:24 0
54 *129:25 *186:18 0
55 *170:33 *186:18 0
56 *171:8 *186:10 0
*RES
1 *871:Y *186:10 41.6583 
2 *186:10 *186:18 47.931 
3 *186:18 *186:24 40.9682 
4 *186:24 *872:B 40.3193 
5 *186:18 *186:41 32.8544 
6 *186:41 *186:47 44.0582 
7 *186:47 *943:B 27.4572 
8 *186:41 *924:B 20.5356 
*END

*D_NET *187 0.000525583
*CONN
*I *873:A2 I *D sg13cmos5l_o21ai_1
*I *872:Y O *D sg13cmos5l_nor2_1
*CAP
1 *873:A2 3.15103e-05
2 *872:Y 0.00017212
3 *187:10 0.000203631
4 *873:A2 *873:B1 3.96571e-05
5 *873:A2 *379:6 4.77425e-05
6 *873:A2 *379:15 1.54008e-05
7 *187:10 *265:12 1.55212e-05
8 *187:10 *387:91 0
*RES
1 *872:Y *187:10 41.4111 
2 *187:10 *873:A2 40.3193 
*END

*D_NET *188 0.00162549
*CONN
*I *1062:A I *D sg13cmos5l_dlygate4sd3_1
*I *873:Y O *D sg13cmos5l_o21ai_1
*CAP
1 *1062:A 7.90835e-05
2 *873:Y 0.000362162
3 *188:14 0.000441245
4 *1062:A *400:46 0.000121643
5 *188:14 *873:B1 7.31538e-06
6 *188:14 *202:39 0.000556676
7 *188:14 *413:10 0
8 *90:18 *1062:A 5.7368e-05
*RES
1 *873:Y *188:14 43.9964 
2 *188:14 *1062:A 40.8163 
*END

*D_NET *189 0.000831249
*CONN
*I *893:C I *D sg13cmos5l_nand3_1
*I *874:Y O *D sg13cmos5l_nor2_1
*CAP
1 *893:C 4.37077e-05
2 *874:Y 0.000138199
3 *189:14 0.000181907
4 *893:C *193:10 8.00842e-05
5 *189:14 *193:10 0
6 *189:14 *384:73 0.000178862
7 *189:14 *411:35 0.000128406
8 *893:B *893:C 8.00842e-05
*RES
1 *874:Y *189:14 41.8643 
2 *189:14 *893:C 40.5356 
*END

*D_NET *190 0.00332117
*CONN
*I *899:A1 I *D sg13cmos5l_o21ai_1
*I *876:B I *D sg13cmos5l_nor2_1
*I *875:Y O *D sg13cmos5l_nand3b_1
*CAP
1 *899:A1 0
2 *876:B 0
3 *875:Y 0.000466301
4 *190:31 0.000333964
5 *190:12 0.000495998
6 *190:8 0.000628335
7 *190:8 *191:21 7.51285e-05
8 *190:8 *192:16 0
9 *190:8 *205:22 0
10 *190:8 *206:67 0.00034024
11 *190:8 *263:34 0
12 *190:12 *877:B 4.72443e-05
13 *190:12 *191:6 9.59267e-05
14 *190:31 *897:A2 0
15 *190:31 *899:B1 0
16 *190:31 *901:B 1.54008e-05
17 *190:31 *207:10 0.000128576
18 *190:31 *209:25 0.000175733
19 *190:31 *214:16 0.00023464
20 *190:31 *419:12 0
21 *1151:A *190:31 0.000283679
*RES
1 *875:Y *190:8 44.3054 
2 *190:8 *190:12 21.4008 
3 *190:12 *876:B 20 
4 *190:12 *190:31 44.1612 
5 *190:31 *899:A1 20 
*END

*D_NET *191 0.00204619
*CONN
*I *915:B1 I *D sg13cmos5l_o21ai_1
*I *877:B I *D sg13cmos5l_nand2_1
*I *876:Y O *D sg13cmos5l_nor2_1
*CAP
1 *915:B1 0
2 *877:B 6.5995e-05
3 *876:Y 6.29325e-05
4 *191:21 0.000476149
5 *191:6 0.000605076
6 *877:B *914:A2 0
7 *191:21 *914:A2 0
8 *191:21 *916:B1 0
9 *191:21 *205:22 0
10 *191:21 *209:8 0.000394652
11 *191:21 *384:106 0
12 *191:21 *434:10 0
13 *876:A *877:B 0.000112059
14 *876:A *191:6 0.000111027
15 *190:8 *191:21 7.51285e-05
16 *190:12 *877:B 4.72443e-05
17 *190:12 *191:6 9.59267e-05
*RES
1 *876:Y *191:6 20.7519 
2 *191:6 *877:B 20.7519 
3 *191:6 *191:21 44.5835 
4 *191:21 *915:B1 20 
*END

*D_NET *192 0.00450303
*CONN
*I *878:B I *D sg13cmos5l_nand2_1
*I *877:Y O *D sg13cmos5l_nand2_1
*CAP
1 *878:B 9.35973e-05
2 *877:Y 0.000216666
3 *192:16 0.000587656
4 *192:8 0.000710725
5 *878:B *872:A 0
6 *192:8 *263:34 0.000287672
7 *192:8 *384:73 0
8 *192:8 *384:77 0
9 *192:16 *202:18 0.000289616
10 *192:16 *205:14 0
11 *192:16 *205:22 0.000289307
12 *192:16 *206:67 0.00012816
13 *192:16 *263:34 0
14 *192:16 *321:34 0.000555042
15 *192:16 *386:68 4.77425e-05
16 *192:16 *386:75 0
17 *192:16 *387:68 0.000234505
18 *192:16 *387:79 0.000213778
19 *883:D *192:8 0.00023464
20 *7:18 *878:B 0.000144132
21 *117:12 *192:16 0.000235565
22 *175:43 *192:8 0.000234224
23 *190:8 *192:16 0
*RES
1 *877:Y *192:8 42.8222 
2 *192:8 *192:16 46.9731 
3 *192:16 *878:B 40.9682 
*END

*D_NET *193 0.0109087
*CONN
*I *926:B I *D sg13cmos5l_nand4_1
*I *945:B I *D sg13cmos5l_nand4_1
*I *880:B I *D sg13cmos5l_nor2_1
*I *879:X O *D sg13cmos5l_and4_1
*CAP
1 *926:B 0.000208585
2 *945:B 0.000620337
3 *880:B 0
4 *879:X 0.000515446
5 *193:29 0.000898141
6 *193:21 0.000934813
7 *193:10 0.00096387
8 *926:B *377:55 0.00011167
9 *945:B *932:B 0
10 *945:B *375:66 8.00842e-05
11 *945:B *377:25 0
12 *945:B *383:39 0
13 *193:10 *874:B 0.000129431
14 *193:10 *263:34 0.000662849
15 *193:10 *303:32 0
16 *193:10 *321:42 0
17 *193:10 *411:35 0.000122871
18 *193:10 *437:20 0.000241886
19 *193:21 *263:34 0.00140954
20 *193:21 *385:10 0.000662725
21 *193:29 *258:51 0.000822981
22 *193:29 *355:14 1.54008e-05
23 *193:29 *370:10 0.000448031
24 *193:29 *383:39 0.000128654
25 *893:B *193:10 0
26 *893:C *193:10 8.00842e-05
27 *6:14 *193:10 0
28 *7:18 *193:10 0
29 *8:14 *926:B 0.000128577
30 *8:14 *193:29 0.000112437
31 *26:10 *193:29 0
32 *26:18 *926:B 0
33 *94:20 *193:10 0
34 *102:22 *193:21 0.000659822
35 *129:35 *193:10 0.000290311
36 *129:35 *193:21 0.000323479
37 *134:31 *945:B 0.000336724
38 *186:41 *193:21 0
39 *189:14 *193:10 0
*RES
1 *879:X *193:10 46.6332 
2 *193:10 *880:B 40 
3 *193:10 *193:21 28.5078 
4 *193:21 *193:29 44.5629 
5 *193:29 *945:B 25.7268 
6 *193:21 *926:B 22.0703 
*END

*D_NET *194 0.00267587
*CONN
*I *881:A2 I *D sg13cmos5l_o21ai_1
*I *880:Y O *D sg13cmos5l_nor2_1
*CAP
1 *881:A2 0.000170746
2 *880:Y 0.000184362
3 *194:8 0.000355108
4 *881:A2 *195:12 0
5 *881:A2 *258:43 0
6 *194:8 *263:34 0.000982887
7 *90:18 *881:A2 0
8 *186:18 *194:8 7.57915e-05
9 *186:41 *194:8 0.000906976
*RES
1 *880:Y *194:8 44.5526 
2 *194:8 *881:A2 41.4008 
*END

*D_NET *195 0.00332551
*CONN
*I *1155:A I *D sg13cmos5l_dlygate4sd3_1
*I *881:Y O *D sg13cmos5l_o21ai_1
*CAP
1 *1155:A 0.000158807
2 *881:Y 0.000858954
3 *195:12 0.00101776
4 *1155:A *314:10 0.000501511
5 *195:12 *1013:RESET_B 0.000252132
6 *195:12 *258:35 0
7 *195:12 *258:39 0
8 *195:12 *400:61 0.000175721
9 *195:12 *400:65 0.000360625
10 *881:A2 *195:12 0
11 *28:8 *1155:A 0
12 *90:18 *195:12 0
*RES
1 *881:Y *195:12 48.0614 
2 *195:12 *1155:A 42.3278 
*END

*D_NET *196 0.00712042
*CONN
*I *884:A1 I *D sg13cmos5l_o21ai_1
*I *903:A1 I *D sg13cmos5l_o21ai_1
*I *882:Y O *D sg13cmos5l_nand3_1
*CAP
1 *884:A1 0
2 *903:A1 7.86098e-05
3 *882:Y 0
4 *196:31 0.00017164
5 *196:10 0.00128519
6 *196:4 0.00137822
7 *903:A1 *209:33 0.000112601
8 *903:A1 *257:22 0.000144673
9 *903:A1 *430:14 0
10 *196:10 *882:A 4.75166e-05
11 *196:10 *888:A_N 0.0007664
12 *196:10 *897:A1 0.000340288
13 *196:10 *906:A1 0.000611189
14 *196:10 *907:B1 0
15 *196:10 *201:8 0
16 *196:10 *207:10 0
17 *196:10 *209:25 0
18 *196:10 *209:33 0
19 *196:10 *378:62 0.00125504
20 *196:10 *390:34 4.75166e-05
21 *196:10 *390:40 0
22 *196:10 *392:97 7.53765e-05
23 *196:10 *411:8 0
24 *196:10 *414:8 0.000340536
25 *196:31 *882:A 3.23417e-05
26 *196:31 *884:A2 4.79124e-05
27 *196:31 *892:A2 4.79124e-05
28 *196:31 *390:34 4.77425e-05
29 *196:31 *390:40 0
30 *196:31 *411:23 0
31 *196:31 *414:8 0.000289715
*RES
1 *882:Y *196:4 20 
2 *196:4 *196:10 35.9959 
3 *196:10 *903:A1 40.9682 
4 *196:4 *196:31 42.2969 
5 *196:31 *884:A1 20 
*END

*D_NET *197 0.00284628
*CONN
*I *889:A1 I *D sg13cmos5l_o21ai_1
*I *884:A2 I *D sg13cmos5l_o21ai_1
*I *894:A1 I *D sg13cmos5l_o21ai_1
*I *883:X O *D sg13cmos5l_or4_1
*CAP
1 *889:A1 2.45224e-05
2 *884:A2 0.000553982
3 *894:A1 0
4 *883:X 0.000169977
5 *197:14 0.000786752
6 *197:8 0.000427269
7 *884:A2 *884:B1 1.54556e-05
8 *884:A2 *892:A2 7.15158e-05
9 *884:A2 *202:39 4.78356e-05
10 *884:A2 *205:14 0
11 *884:A2 *214:10 0
12 *884:A2 *214:16 0.000183564
13 *889:A1 *201:12 1.54008e-05
14 *889:A1 *386:111 3.23417e-05
15 *197:8 *386:68 0
16 *197:8 *386:75 0.000143171
17 *197:8 *386:111 4.77425e-05
18 *197:14 *201:18 7.52158e-05
19 *197:14 *204:10 0.000128247
20 *197:14 *205:14 7.53765e-05
21 *197:14 *205:22 0
22 *197:14 *214:16 0
23 *1156:A *884:A2 0
24 *6:14 *884:A2 0
25 *196:31 *884:A2 4.79124e-05
*RES
1 *883:X *197:8 21.5347 
2 *197:8 *197:14 22.3999 
3 *197:14 *894:A1 40 
4 *197:14 *884:A2 45.8504 
5 *197:8 *889:A1 20.3193 
*END

*D_NET *198 0.00871952
*CONN
*I *928:B I *D sg13cmos5l_nand4_1
*I *947:B I *D sg13cmos5l_nand4_1
*I *886:B I *D sg13cmos5l_nor2_1
*I *885:Y O *D sg13cmos5l_nor4_1
*CAP
1 *928:B 0
2 *947:B 0
3 *886:B 0
4 *885:Y 4.88087e-05
5 *198:54 0.000550775
6 *198:39 0.00023794
7 *198:31 0.00161819
8 *198:16 0.000573437
9 *198:8 0.00145172
10 *198:8 *438:65 1.54556e-05
11 *198:16 *202:39 0
12 *198:16 *303:26 0
13 *198:16 *387:79 0
14 *198:31 *920:B 0.000266416
15 *198:31 *298:37 0
16 *198:31 *302:28 0.000128952
17 *198:31 *307:32 0
18 *198:31 *378:22 0
19 *198:31 *388:45 0.00107406
20 *198:31 *388:57 0.000554937
21 *198:39 *213:36 0.000112408
22 *198:39 *373:8 0
23 *198:39 *375:12 8.00842e-05
24 *198:39 *375:22 4.77425e-05
25 *198:54 *926:A 0.000183552
26 *198:54 *928:C 1.54008e-05
27 *198:54 *383:56 5.30319e-05
28 *198:54 *401:68 0.000237707
29 *7:18 *198:16 0
30 *8:8 *198:31 0.000553759
31 *9:14 *198:31 0
32 *23:12 *198:31 0.000129186
33 *40:12 *198:16 0
34 *98:14 *198:54 0
35 *102:12 *198:8 8.02102e-05
36 *129:25 *198:16 0
37 *186:18 *198:16 0.000705746
*RES
1 *885:Y *198:8 40.5356 
2 *198:8 *198:16 46.3242 
3 *198:16 *886:B 40 
4 *198:8 *198:31 31.1549 
5 *198:31 *198:39 42.369 
6 *198:39 *947:B 20 
7 *198:31 *198:54 46.9216 
8 *198:54 *928:B 20 
*END

*D_NET *199 0.000872857
*CONN
*I *887:A2 I *D sg13cmos5l_o21ai_1
*I *886:Y O *D sg13cmos5l_nor2_1
*CAP
1 *887:A2 0.000101496
2 *886:Y 0.000216642
3 *199:10 0.000318138
4 *887:A2 *379:21 0.000144898
5 *887:A2 *379:36 1.54556e-05
6 *199:10 *202:39 0
7 *199:10 *321:24 0
8 *199:10 *379:21 7.62277e-05
9 *1063:A *887:A2 0
10 *1063:A *199:10 0
*RES
1 *886:Y *199:10 42.0909 
2 *199:10 *887:A2 40.9682 
*END

*D_NET *200 0.000636862
*CONN
*I *1148:A I *D sg13cmos5l_dlygate4sd3_1
*I *887:Y O *D sg13cmos5l_o21ai_1
*CAP
1 *1148:A 5.72211e-05
2 *887:Y 0.000116911
3 *200:8 0.000174132
4 *1148:A *303:26 0
5 *1148:A *321:24 0
6 *1148:A *379:21 0
7 *1148:A *379:36 0
8 *200:8 *254:167 0
9 *200:8 *321:24 0.000288598
*RES
1 *887:Y *200:8 41.339 
2 *200:8 *1148:A 40.5356 
*END

*D_NET *201 0.00243134
*CONN
*I *889:A2 I *D sg13cmos5l_o21ai_1
*I *907:A1 I *D sg13cmos5l_o21ai_1
*I *888:Y O *D sg13cmos5l_nand3b_1
*CAP
1 *889:A2 0
2 *907:A1 0
3 *888:Y 0.000146233
4 *201:18 0.000155357
5 *201:12 0.000350416
6 *201:8 0.000341291
7 *201:8 *390:40 0
8 *201:12 *889:B1 0.000240328
9 *201:12 *386:111 0
10 *201:18 *214:16 0.000658895
11 *201:18 *263:26 0.000448202
12 *201:18 *386:83 0
13 *889:A1 *201:12 1.54008e-05
14 *196:10 *201:8 0
15 *197:14 *201:18 7.52158e-05
*RES
1 *888:Y *201:8 41.0918 
2 *201:8 *201:12 21.8334 
3 *201:12 *201:18 43.0694 
4 *201:18 *907:A1 20 
5 *201:12 *889:A2 20 
*END

*D_NET *202 0.0134736
*CONN
*I *949:B I *D sg13cmos5l_nand4_1
*I *930:B I *D sg13cmos5l_nand4_1
*I *891:B I *D sg13cmos5l_nor2_1
*I *890:Y O *D sg13cmos5l_nor3_1
*CAP
1 *949:B 0
2 *930:B 5.87688e-05
3 *891:B 0
4 *890:Y 6.4803e-05
5 *202:60 6.5261e-05
6 *202:54 0.00144071
7 *202:39 0.00293697
8 *202:22 0.00158742
9 *202:18 0.00080778
10 *202:10 0.00078791
11 *930:B *930:C 4.77425e-05
12 *202:10 *895:B 7.54613e-05
13 *202:18 *205:14 0.000288688
14 *202:18 *213:12 0
15 *202:18 *213:62 0
16 *202:18 *387:36 0
17 *202:18 *387:57 0
18 *202:22 *205:14 4.76068e-05
19 *202:39 *873:B1 0
20 *202:39 *891:A 1.54008e-05
21 *202:39 *892:A2 1.54556e-05
22 *202:39 *926:D 0.000341119
23 *202:39 *205:14 0
24 *202:39 *229:8 0.000129679
25 *202:39 *230:8 0
26 *202:39 *254:59 0
27 *202:39 *254:75 0
28 *202:39 *303:26 0.000129595
29 *202:39 *374:37 0.000451596
30 *202:39 *374:48 0.000234885
31 *202:39 *379:21 0
32 *202:39 *379:51 1.55212e-05
33 *202:39 *387:68 0
34 *202:39 *387:79 0
35 *202:39 *392:97 0
36 *202:39 *401:68 0
37 *202:39 *421:12 0.000660327
38 *202:54 *210:37 0
39 *202:54 *310:14 0
40 *202:54 *310:20 0
41 *202:54 *372:67 0
42 *202:54 *374:48 0.000106064
43 *202:54 *380:90 0.000376788
44 *202:60 *241:8 2.20966e-05
45 bn5 *202:54 0
46 *884:A2 *202:39 4.78356e-05
47 *890:B *202:10 8.00842e-05
48 *6:14 *202:39 0
49 *7:18 *202:39 0.00114406
50 *42:33 *202:10 7.64e-05
51 *78:18 *202:60 0
52 *97:12 *202:18 0.000571257
53 *107:14 *202:54 0
54 *129:25 *202:18 0
55 *186:47 *202:54 0
56 *188:14 *202:39 0.000556676
57 *192:16 *202:18 0.000289616
58 *198:16 *202:39 0
59 *199:10 *202:39 0
*RES
1 *890:Y *202:10 40.8858 
2 *202:10 *202:18 47.7147 
3 *202:18 *202:22 20.7519 
4 *202:22 *891:B 20 
5 *202:22 *202:39 39.1477 
6 *202:39 *930:B 40.5356 
7 *202:39 *202:54 35.038 
8 *202:54 *202:60 40.5974 
9 *202:60 *949:B 20 
*END

*D_NET *203 0.00218242
*CONN
*I *892:A2 I *D sg13cmos5l_o21ai_1
*I *891:Y O *D sg13cmos5l_nor2_1
*CAP
1 *892:A2 0.000814755
2 *891:Y 0.000814755
3 *892:A2 *882:B 0
4 *892:A2 *882:A 0
5 *892:A2 *884:B1 0
6 *892:A2 *892:B1 1.54008e-05
7 *892:A2 *985:D 0
8 *892:A2 *204:10 0
9 *892:A2 *379:36 0.000274578
10 *892:A2 *392:97 0
11 *892:A2 *411:25 0.000112651
12 *884:A2 *892:A2 7.15158e-05
13 *62:10 *892:A2 1.54008e-05
14 *196:31 *892:A2 4.79124e-05
15 *202:39 *892:A2 1.54556e-05
*RES
1 *891:Y *892:A2 48.3533 
*END

*D_NET *204 0.00265509
*CONN
*I *894:B1 I *D sg13cmos5l_o21ai_1
*I *892:Y O *D sg13cmos5l_o21ai_1
*CAP
1 *894:B1 0
2 *892:Y 0.000596811
3 *204:10 0.000596811
4 *204:10 *892:B1 1.54008e-05
5 *204:10 *986:RESET_B 0
6 *204:10 *1152:A 0
7 *204:10 *214:16 0.00012816
8 *892:A2 *204:10 0
9 *1149:A *204:10 0.00059483
10 *62:10 *204:10 0.00059483
11 *197:14 *204:10 0.000128247
*RES
1 *892:Y *204:10 46.7568 
2 *204:10 *894:B1 40 
*END

*D_NET *205 0.00503444
*CONN
*I *894:A2 I *D sg13cmos5l_o21ai_1
*I *911:A2 I *D sg13cmos5l_o21ai_1
*I *893:Y O *D sg13cmos5l_nand3_1
*CAP
1 *894:A2 6.84928e-05
2 *911:A2 0
3 *893:Y 0.000381298
4 *205:22 0.00145425
5 *205:14 0.00190404
6 *205:14 *891:A 4.76068e-05
7 *205:14 *392:97 0
8 *205:22 *907:B1 0
9 *205:22 *911:B1 4.79124e-05
10 *205:22 *990:D 0
11 *205:22 *206:67 0
12 *205:22 *263:26 0
13 *205:22 *386:83 0.000183755
14 *205:22 *394:44 0
15 *205:22 *424:14 0
16 *205:22 *431:8 0
17 *205:22 *432:8 0.000129592
18 *205:22 *434:10 0
19 *884:A2 *205:14 0
20 *911:A1 *205:22 0
21 *6:14 *205:14 3.72671e-05
22 *66:16 *205:22 7.92547e-05
23 *190:8 *205:22 0
24 *191:21 *205:22 0
25 *192:16 *205:14 0
26 *192:16 *205:22 0.000289307
27 *197:14 *205:14 7.53765e-05
28 *197:14 *205:22 0
29 *202:18 *205:14 0.000288688
30 *202:22 *205:14 4.76068e-05
31 *202:39 *205:14 0
*RES
1 *893:Y *205:14 43.626 
2 *205:14 *205:22 32.978 
3 *205:22 *911:A2 20 
4 *205:14 *894:A2 40.5356 
*END

*D_NET *206 0.0150504
*CONN
*I *896:B I *D sg13cmos5l_nor2_1
*I *951:B I *D sg13cmos5l_nand4_1
*I *932:B I *D sg13cmos5l_nand4_1
*I *895:Y O *D sg13cmos5l_nor4_1
*CAP
1 *896:B 0.000107081
2 *951:B 0.000217827
3 *932:B 0.000276483
4 *895:Y 0.000299431
5 *206:67 0.000842459
6 *206:59 0.000950988
7 *206:24 0.000764406
8 *206:16 0.00233422
9 *206:8 0.0017123
10 *896:B *986:RESET_B 0.000144
11 *896:B *386:75 0.000111027
12 *896:B *386:111 6.46834e-05
13 *896:B *401:93 0
14 *932:B *377:25 0.00040294
15 *932:B *377:40 3.24568e-05
16 *932:B *377:55 3.23472e-05
17 *932:B *383:43 0.000177241
18 *951:B *953:A 4.77425e-05
19 *951:B *226:22 0
20 *951:B *370:89 0.000126509
21 *951:B *376:36 8.76915e-05
22 *951:B *377:25 0.000130778
23 *206:8 *389:78 7.9104e-05
24 *206:16 *1037:A 0
25 *206:16 *1176:A 0.00119624
26 *206:16 *254:55 0
27 *206:16 *360:26 0.00124583
28 *206:16 *375:22 0.000394151
29 *206:16 *377:25 0
30 *206:16 *389:78 7.51285e-05
31 *206:16 *400:10 0
32 *206:24 *1187:A 7.54103e-05
33 *206:24 *254:79 0
34 *206:24 *298:14 0.000268823
35 *206:24 *298:18 0.000489824
36 *206:59 *796:B_N 0.000129137
37 *206:59 *895:B 0.000268885
38 *206:59 *251:12 0
39 *206:59 *251:16 0
40 *206:59 *389:82 0.000128663
41 *206:67 *796:B_N 0.000498736
42 *206:67 *904:A 0
43 *206:67 *386:68 0
44 *206:67 *390:23 0.000339135
45 *206:67 *390:34 9.66587e-05
46 *206:67 *392:84 0
47 *757:A *206:59 0.00018128
48 *867:A *206:16 0
49 *867:B *206:16 0
50 *890:C *206:8 1.52636e-05
51 *942:A1 *951:B 0.000237089
52 *945:B *932:B 0
53 *57:8 *206:16 0
54 *130:14 *206:16 0
55 *171:8 *206:16 0
56 *171:8 *206:59 0
57 *190:8 *206:67 0.00034024
58 *192:16 *206:67 0.00012816
59 *205:22 *206:67 0
*RES
1 *895:Y *206:8 40.7519 
2 *206:8 *206:16 18.8284 
3 *206:16 *206:24 45.2118 
4 *206:24 *932:B 43.1312 
5 *206:16 *951:B 42.9252 
6 *895:Y *206:59 42.8222 
7 *206:59 *206:67 47.9619 
8 *206:67 *896:B 41.1845 
*END

*D_NET *207 0.00137096
*CONN
*I *897:A2 I *D sg13cmos5l_o21ai_1
*I *896:Y O *D sg13cmos5l_nor2_1
*CAP
1 *897:A2 0.000154786
2 *896:Y 0.000298689
3 *207:10 0.000453475
4 *897:A2 *897:A1 0.000176608
5 *897:A2 *209:25 0.000143369
6 *897:A2 *419:12 1.54556e-05
7 *207:10 *888:A_N 0
8 *207:10 *897:A1 0
9 *207:10 *214:16 0
10 *190:31 *897:A2 0
11 *190:31 *207:10 0.000128576
12 *196:10 *207:10 0
*RES
1 *896:Y *207:10 42.6471 
2 *207:10 *897:A2 41.6171 
*END

*D_NET *208 0.000407475
*CONN
*I *899:B1 I *D sg13cmos5l_o21ai_1
*I *897:Y O *D sg13cmos5l_o21ai_1
*CAP
1 *899:B1 0.000172082
2 *897:Y 0.000172082
3 *899:B1 *901:B 0
4 *899:B1 *419:12 1.54556e-05
5 *1151:A *899:B1 0
6 *1153:A *899:B1 4.78556e-05
7 *190:31 *899:B1 0
*RES
1 *897:Y *899:B1 42.163 
*END

*D_NET *209 0.00478186
*CONN
*I *899:A2 I *D sg13cmos5l_o21ai_1
*I *903:A2 I *D sg13cmos5l_o21ai_1
*I *907:A2 I *D sg13cmos5l_o21ai_1
*I *898:Y O *D sg13cmos5l_nand3_1
*CAP
1 *899:A2 2.46474e-05
2 *903:A2 0
3 *907:A2 0
4 *898:Y 0.000166728
5 *209:33 0.00106771
6 *209:25 0.00140786
7 *209:12 0.000487542
8 *209:8 0.000338763
9 *209:25 *901:B 0
10 *209:25 *411:8 0
11 *209:33 *903:B1 1.54008e-05
12 *209:33 *254:173 0
13 *209:33 *365:12 0.000446854
14 *209:33 *411:8 0
15 *209:33 *430:14 0
16 *209:33 *433:28 0
17 *883:D *209:8 0
18 *897:A2 *209:25 0.000143369
19 *903:A1 *209:33 0.000112601
20 *915:A2 *209:8 0
21 *1151:A *209:25 0
22 *190:31 *209:25 0.000175733
23 *191:21 *209:8 0.000394652
24 *196:10 *209:25 0
25 *196:10 *209:33 0
*RES
1 *898:Y *209:8 41.8334 
2 *209:8 *209:12 21.4008 
3 *209:12 *907:A2 20 
4 *209:12 *209:25 23.2445 
5 *209:25 *209:33 31.2785 
6 *209:33 *903:A2 20 
7 *209:25 *899:A2 40.3193 
*END

*D_NET *210 0.0117746
*CONN
*I *901:B I *D sg13cmos5l_nor2_1
*I *934:B I *D sg13cmos5l_nand4_1
*I *953:B I *D sg13cmos5l_nand4_1
*I *900:X O *D sg13cmos5l_and4_1
*CAP
1 *901:B 0.00137736
2 *934:B 0
3 *953:B 0
4 *900:X 0
5 *210:54 0.00205148
6 *210:37 0.000899291
7 *210:24 0.000254143
8 *210:16 0.00307241
9 *210:8 0.00259309
10 *210:6 0
11 *901:B *888:C 0
12 *901:B *888:A_N 0.000176665
13 *901:B *897:A1 0
14 *901:B *986:D 0
15 *901:B *211:10 0
16 *901:B *257:74 0
17 *901:B *303:45 4.78359e-05
18 *901:B *384:87 0
19 *901:B *386:96 0
20 *901:B *401:93 0
21 *901:B *419:12 0
22 *210:16 *219:16 0
23 *210:24 *298:18 0
24 *210:24 *373:54 0.00012778
25 *210:37 *932:D 7.65602e-05
26 *210:37 *938:D 0.000128493
27 *210:37 *298:10 0
28 *210:37 *298:14 0
29 *210:37 *310:14 0
30 *210:37 *355:32 0.000129679
31 *210:37 *373:42 0.000180616
32 *210:54 *219:16 0
33 *210:54 *384:77 0
34 *876:A *901:B 0.000338114
35 *899:B1 *901:B 0
36 *1153:A *901:B 0
37 *78:18 *210:24 0.000128565
38 *95:14 *210:54 0
39 *104:16 *210:24 0
40 *175:35 *901:B 0.000177109
41 *190:31 *901:B 1.54008e-05
42 *202:54 *210:37 0
43 *209:25 *901:B 0
*RES
1 *900:X *210:6 40 
2 *210:6 *210:8 20 
3 *210:8 *210:16 8.72236 
4 *210:16 *210:24 42.6265 
5 *210:24 *953:B 20 
6 *210:16 *210:37 49.4039 
7 *210:37 *934:B 20 
8 *210:8 *210:54 47.6426 
9 *210:54 *901:B 32.388 
*END

*D_NET *211 0.00361616
*CONN
*I *902:A2 I *D sg13cmos5l_o21ai_1
*I *901:Y O *D sg13cmos5l_nor2_1
*CAP
1 *902:A2 0.000151421
2 *901:Y 0.000658251
3 *211:16 0.00103529
4 *211:10 0.00154212
5 *902:A2 *898:A 0
6 *902:A2 *916:A2 0
7 *902:A2 *378:32 1.54008e-05
8 *902:A2 *378:43 3.23417e-05
9 *211:10 *254:167 0
10 *211:10 *254:173 0
11 *211:10 *257:10 0.000181325
12 *211:10 *257:74 0
13 *211:10 *394:77 0
14 *211:10 *394:92 0
15 *211:16 *212:12 0
16 *211:16 *254:173 0
17 *901:B *211:10 0
18 *1153:A *211:10 0
19 *101:12 *211:10 0
*RES
1 *901:Y *211:10 46.7568 
2 *211:10 *211:16 47.4572 
3 *211:16 *902:A2 41.4008 
*END

*D_NET *212 0.00252184
*CONN
*I *1158:A I *D sg13cmos5l_dlygate4sd3_1
*I *902:Y O *D sg13cmos5l_o21ai_1
*CAP
1 *1158:A 0
2 *902:Y 6.25872e-05
3 *212:18 0.000142545
4 *212:12 0.00119833
5 *212:8 0.00111838
6 *212:12 *254:173 0
7 *212:18 *394:77 0
8 *31:8 *212:18 0
9 *211:16 *212:12 0
*RES
1 *902:Y *212:8 40.5356 
2 *212:8 *212:12 31.3506 
3 *212:12 *212:18 41.5862 
4 *212:18 *1158:A 20 
*END

*D_NET *213 0.00858623
*CONN
*I *905:B I *D sg13cmos5l_nor2_1
*I *936:B I *D sg13cmos5l_nand4_1
*I *955:B I *D sg13cmos5l_nand4_1
*I *904:Y O *D sg13cmos5l_nor4_1
*CAP
1 *905:B 0
2 *936:B 3.24773e-05
3 *955:B 3.64002e-05
4 *904:Y 1.43905e-05
5 *213:62 0.000419976
6 *213:36 0.000547126
7 *213:24 0.00181586
8 *213:12 0.00193509
9 *213:8 0.000256846
10 *936:B *225:8 0.000160033
11 *936:B *399:10 0.000182711
12 *955:B *955:C 1.54008e-05
13 *213:8 *391:55 7.51542e-05
14 *213:12 *387:57 0
15 *213:24 *225:8 0.000504849
16 *213:24 *302:14 0
17 *213:24 *307:14 0
18 *213:24 *342:18 0
19 *213:24 *344:16 0
20 *213:24 *378:26 0
21 *213:24 *384:52 0
22 *213:24 *384:71 0.000398319
23 *213:24 *385:31 0.000234224
24 *213:24 *387:57 0
25 *213:24 *390:10 0.000235203
26 *213:24 *399:10 7.66483e-05
27 *213:24 *437:20 0
28 *213:36 *936:D 0
29 *213:36 *1042:A 0.000288097
30 *213:36 *223:35 0
31 *213:36 *226:35 4.74605e-05
32 *213:36 *370:64 0
33 *213:36 *373:8 0
34 *213:36 *373:14 0.000180726
35 *213:36 *373:25 0.00012816
36 *213:62 *387:57 0
37 *213:62 *392:97 0.000208025
38 *213:62 *411:25 0.000208025
39 *937:A1 *213:36 0
40 *8:14 *213:36 0
41 *58:10 *213:24 0.000396224
42 *95:50 *213:8 7.6403e-05
43 *129:35 *213:24 0
44 *178:8 *213:24 0
45 *184:8 *213:24 0
46 *198:39 *213:36 0.000112408
47 *202:18 *213:12 0
48 *202:18 *213:62 0
*RES
1 *904:Y *213:8 40.3502 
2 *213:8 *213:12 22.266 
3 *213:12 *213:24 34.7908 
4 *213:24 *213:36 45.5723 
5 *213:36 *955:B 40.3193 
6 *213:24 *936:B 40.8446 
7 *213:12 *213:62 44.3157 
8 *213:62 *905:B 20 
*END

*D_NET *214 0.00645215
*CONN
*I *906:A2 I *D sg13cmos5l_o21ai_1
*I *905:Y O *D sg13cmos5l_nor2_1
*CAP
1 *906:A2 0
2 *905:Y 8.1421e-05
3 *214:16 0.00142342
4 *214:10 0.00150484
5 *214:16 *906:B1 1.54008e-05
6 *214:16 *906:A1 0.000176441
7 *214:16 *907:B1 0.00204537
8 *214:16 *215:8 0
9 *214:16 *386:111 0
10 *214:16 *394:53 0
11 *214:16 *433:10 0
12 *884:A2 *214:10 0
13 *884:A2 *214:16 0.000183564
14 *190:31 *214:16 0.00023464
15 *197:14 *214:16 0
16 *201:18 *214:16 0.000658895
17 *204:10 *214:16 0.00012816
18 *207:10 *214:16 0
*RES
1 *905:Y *214:10 40.8858 
2 *214:10 *214:16 37.4791 
3 *214:16 *906:A2 20 
*END

*D_NET *215 0.0051527
*CONN
*I *907:B1 I *D sg13cmos5l_o21ai_1
*I *906:Y O *D sg13cmos5l_o21ai_1
*CAP
1 *907:B1 0.000538992
2 *906:Y 0.000230058
3 *215:8 0.00076905
4 *907:B1 *263:26 0.000767833
5 *907:B1 *364:8 0
6 *907:B1 *432:8 0
7 *215:8 *906:B1 1.54008e-05
8 *215:8 *257:22 0.000338568
9 *215:8 *394:53 0
10 *66:16 *907:B1 0.000447428
11 *196:10 *907:B1 0
12 *205:22 *907:B1 0
13 *214:16 *907:B1 0.00204537
14 *214:16 *215:8 0
*RES
1 *906:Y *215:8 42.266 
2 *215:8 *907:B1 49.991 
*END

*D_NET *216 0.0179627
*CONN
*I *909:B I *D sg13cmos5l_nor2_1
*I *938:B I *D sg13cmos5l_nand4_1
*I *957:B I *D sg13cmos5l_nand4_1
*I *908:Y O *D sg13cmos5l_nor3_1
*CAP
1 *909:B 0.000231436
2 *938:B 0.000306376
3 *957:B 0
4 *908:Y 0
5 *216:56 0.00158324
6 *216:34 0.00172841
7 *216:24 0.00165635
8 *216:14 0.0018319
9 *216:4 0.00294939
10 *909:B *909:A 0
11 *909:B *1162:A 0
12 *909:B *394:26 0
13 *909:B *394:35 0
14 *938:B *938:C 0.000144521
15 *938:B *938:A 4.77425e-05
16 *938:B *939:A2 0
17 *938:B *957:C 3.24022e-05
18 *938:B *354:36 0
19 *938:B *381:18 0.000117863
20 *216:14 *384:31 0.0011446
21 *216:14 *389:10 0.000288087
22 *216:14 *391:103 0
23 *216:14 *395:88 0
24 *216:14 *401:38 0
25 *216:14 *403:20 0.00119977
26 *216:24 *240:16 0
27 *216:24 *388:16 0.00012816
28 *216:24 *401:55 0
29 *216:34 *957:C 0.000214248
30 *216:34 *1034:A 0
31 *216:34 *228:8 0
32 *216:34 *240:28 0
33 *216:34 *244:14 0
34 *216:34 *245:12 0
35 *216:34 *245:28 0
36 *216:34 *246:14 0
37 *216:34 *247:10 0.000290192
38 *216:34 *369:97 0
39 *216:34 *372:12 7.91362e-05
40 *216:34 *372:61 7.92837e-05
41 *216:34 *375:86 0
42 *216:34 *381:18 3.23417e-05
43 *216:34 *381:24 1.54008e-05
44 *216:56 *796:B_N 0.000142958
45 *216:56 *360:14 0
46 *216:56 *388:57 0
47 *216:56 *391:35 0
48 *216:56 *391:55 0.000396105
49 *216:56 *401:93 0
50 *216:56 *403:14 0
51 *851:A2 *216:14 0
52 *890:C *216:56 0
53 *908:C *216:14 0
54 *961:B *216:24 0
55 *961:B *216:34 0
56 *1100:A *216:34 0.000112651
57 *42:33 *216:14 8.00842e-05
58 *42:33 *216:56 0.000352618
59 *54:10 *216:56 0
60 *78:18 *216:34 0.000502606
61 *95:30 *216:56 0.000287758
62 *120:30 *216:14 0
63 *126:48 *216:14 0.000182881
64 *128:25 *216:14 0
65 *132:8 *216:34 0
66 *174:10 *216:56 0
67 *176:10 *216:56 0.00135742
68 *179:16 *216:56 0.000446716
*RES
1 *908:Y *216:4 20 
2 *216:4 *216:14 37.6851 
3 *216:14 *216:24 42.5647 
4 *216:24 *216:34 33.8535 
5 *216:34 *957:B 20 
6 *216:34 *938:B 23.1518 
7 *216:4 *216:56 36.8611 
8 *216:56 *909:B 42.4823 
*END

*D_NET *217 0.00163379
*CONN
*I *910:A2 I *D sg13cmos5l_o21ai_1
*I *909:Y O *D sg13cmos5l_nor2_1
*CAP
1 *910:A2 4.61224e-05
2 *909:Y 0.000326541
3 *217:8 0.000372663
4 *910:A2 *910:B1 8.00842e-05
5 *910:A2 *910:A1 4.77425e-05
6 *217:8 *909:A 0
7 *217:8 *910:B1 0
8 *217:8 *220:8 0.000182448
9 *217:8 *378:43 7.65602e-05
10 *217:8 *386:35 0
11 *217:8 *430:14 0.000501633
*RES
1 *909:Y *217:8 44.0582 
2 *217:8 *910:A2 40.5356 
*END

*D_NET *218 0.00148759
*CONN
*I *1163:A I *D sg13cmos5l_dlygate4sd3_1
*I *910:Y O *D sg13cmos5l_o21ai_1
*CAP
1 *1163:A 5.80642e-05
2 *910:Y 0.000411461
3 *218:12 0.000469525
4 *218:12 *220:8 0
5 *218:12 *222:8 0
6 *218:12 *424:14 0.000274348
7 *1167:A *218:12 0.000274189
*RES
1 *910:Y *218:12 44.4496 
2 *218:12 *1163:A 40.5356 
*END

*D_NET *219 0.0103087
*CONN
*I *913:B I *D sg13cmos5l_nor2_1
*I *940:B I *D sg13cmos5l_nand4_1
*I *959:B I *D sg13cmos5l_nand4_1
*I *912:Y O *D sg13cmos5l_nor4_1
*CAP
1 *913:B 7.15487e-05
2 *940:B 0
3 *959:B 0
4 *912:Y 0
5 *219:54 0.00107522
6 *219:43 0.00024327
7 *219:30 0.000481654
8 *219:16 0.00272635
9 *219:4 0.0030051
10 *913:B *910:A1 0
11 *219:16 *310:45 0
12 *219:30 *959:C 4.77425e-05
13 *219:30 *273:16 8.37856e-05
14 *219:30 *375:86 0.000129197
15 *219:43 *940:C 4.75252e-05
16 *219:43 *940:A 4.76977e-05
17 *219:43 *380:60 0
18 *219:54 *762:A 0
19 *219:54 *853:A 0
20 *219:54 *853:B 0
21 *219:54 *386:33 0
22 *219:54 *386:35 0
23 *219:54 *387:44 0.00135861
24 *219:54 *391:29 7.92652e-05
25 *219:54 *391:35 0
26 *911:A1 *913:B 0.000112563
27 *942:A1 *219:30 0.000293272
28 *54:10 *219:54 0
29 *95:8 *219:54 0.000111612
30 *95:30 *219:54 0
31 *174:10 *219:54 0
32 *175:8 *219:54 0.000394282
33 *210:16 *219:16 0
34 *210:54 *219:16 0
*RES
1 *912:Y *219:4 20 
2 *219:4 *219:16 36.8544 
3 *219:16 *219:30 45.0367 
4 *219:30 *959:B 20 
5 *219:16 *219:43 42.4205 
6 *219:43 *940:B 20 
7 *219:4 *219:54 31.4536 
8 *219:54 *913:B 40.7519 
*END

*D_NET *220 0.00266261
*CONN
*I *914:A2 I *D sg13cmos5l_o21ai_1
*I *913:Y O *D sg13cmos5l_nor2_1
*CAP
1 *914:A2 0.000394166
2 *913:Y 0.000577246
3 *220:8 0.000971412
4 *914:A2 *898:A 0
5 *914:A2 *914:B1 1.54008e-05
6 *914:A2 *914:A1 1.54008e-05
7 *220:8 *910:B1 0.000234172
8 *220:8 *222:8 0
9 *220:8 *378:43 0
10 *220:8 *384:106 0
11 *220:8 *386:35 0
12 *877:B *914:A2 0
13 *898:B *914:A2 0.000145025
14 *177:14 *914:A2 7.96248e-05
15 *179:31 *914:A2 4.77153e-05
16 *191:21 *914:A2 0
17 *217:8 *220:8 0.000182448
18 *218:12 *220:8 0
*RES
1 *913:Y *220:8 45.7886 
2 *220:8 *914:A2 43.8007 
*END

*D_NET *221 9.45957e-05
*CONN
*I *1166:A I *D sg13cmos5l_dlygate4sd3_1
*I *914:Y O *D sg13cmos5l_o21ai_1
*CAP
1 *1166:A 4.72978e-05
2 *914:Y 4.72978e-05
3 *1166:A *898:A 0
4 *1151:A *1166:A 0
*RES
1 *914:Y *1166:A 40.5974 
*END

*D_NET *222 0.00117517
*CONN
*I *916:A2 I *D sg13cmos5l_o21ai_1
*I *915:Y O *D sg13cmos5l_o21ai_1
*CAP
1 *916:A2 0.000278252
2 *915:Y 0.000213109
3 *222:8 0.000491361
4 *916:A2 *916:B1 0.000177048
5 *916:A2 *387:44 1.54008e-05
6 *222:8 *434:10 0
7 *902:A2 *916:A2 0
8 *218:12 *222:8 0
9 *220:8 *222:8 0
*RES
1 *915:Y *222:8 41.8334 
2 *222:8 *916:A2 42.7192 
*END

*D_NET *223 0.00433158
*CONN
*I *936:C I *D sg13cmos5l_nand4_1
*I *1039:A I *D sg13cmos5l_buf_1
*I *917:X O *D sg13cmos5l_and2_1
*CAP
1 *936:C 0
2 *1039:A 0
3 *917:X 0.000179534
4 *223:35 0.000848298
5 *223:12 0.000980866
6 *223:8 0.000312102
7 *223:8 *240:10 7.66483e-05
8 *223:8 *244:14 7.53765e-05
9 *223:8 *384:31 0.000128662
10 *223:8 *403:20 0.000396426
11 *223:8 *405:35 0
12 *223:12 *944:A2 4.76068e-05
13 *223:12 *946:A2 0
14 *223:12 *244:14 0.000208003
15 *223:35 *936:D 1.54008e-05
16 *223:35 *937:A2 4.77425e-05
17 *223:35 *945:D 4.77425e-05
18 *223:35 *225:18 0.000183042
19 *223:35 *226:35 1.53099e-05
20 *223:35 *244:14 0.000175513
21 *223:35 *298:37 0
22 *223:35 *370:64 0.000175661
23 *223:35 *375:22 0
24 *223:35 *375:53 8.0039e-05
25 *223:35 *375:66 0
26 *223:35 *383:39 0.000207931
27 *961:B *223:8 0
28 *13:12 *223:8 0
29 *75:8 *223:35 0.000129681
30 *134:39 *223:35 0
31 *213:36 *223:35 0
*RES
1 *917:X *223:8 42.575 
2 *223:8 *223:12 21.4008 
3 *223:12 *1039:A 20 
4 *223:12 *223:35 48.5516 
5 *223:35 *936:C 20 
*END

*D_NET *224 0.00114653
*CONN
*I *922:C I *D sg13cmos5l_nor3_1
*I *965:A2 I *D sg13cmos5l_o21ai_1
*I *918:Y O *D sg13cmos5l_nand2_1
*CAP
1 *922:C 0.000265475
2 *965:A2 0
3 *918:Y 0
4 *224:14 0.000159388
5 *224:4 0.000424863
6 *922:C *863:A1 0
7 *922:C *966:B 0
8 *922:C *388:12 0
9 *922:C *405:35 0
10 *224:14 *966:B 0
11 *224:14 *249:10 0.000235421
12 *224:14 *385:66 0
13 *224:14 *388:12 0
14 *224:14 *407:16 1.54008e-05
15 *922:A *922:C 1.51749e-05
16 *922:B *922:C 1.54008e-05
17 *125:26 *224:14 1.54008e-05
*RES
1 *918:Y *224:4 20 
2 *224:4 *224:14 41.9467 
3 *224:14 *965:A2 20 
4 *224:4 *922:C 22.3175 
*END

*D_NET *225 0.00406048
*CONN
*I *1036:A I *D sg13cmos5l_buf_1
*I *940:D I *D sg13cmos5l_nand4_1
*I *919:X O *D sg13cmos5l_or3_1
*CAP
1 *1036:A 0.000285103
2 *940:D 0
3 *919:X 0.000309519
4 *225:18 0.000405147
5 *225:10 0.00069025
6 *225:8 0.000309519
7 *1036:A *936:D 0
8 *1036:A *370:18 0.000112426
9 *1036:A *370:51 0
10 *225:8 *1187:A 0
11 *225:8 *385:31 0.000128824
12 *225:18 *937:A2 0.000111551
13 *936:B *225:8 0.000160033
14 *937:A1 *225:18 1.54008e-05
15 *9:14 *225:18 0.000716652
16 *75:8 *225:18 0
17 *104:24 *225:18 0
18 *134:39 *225:8 0.00012816
19 *213:24 *225:8 0.000504849
20 *223:35 *225:18 0.000183042
*RES
1 *919:X *225:8 43.811 
2 *225:8 *225:10 20 
3 *225:10 *225:18 44.7174 
4 *225:18 *940:D 20 
5 *225:10 *1036:A 22.4823 
*END

*D_NET *226 0.00436661
*CONN
*I *1035:A I *D sg13cmos5l_buf_1
*I *959:D I *D sg13cmos5l_nand4_1
*I *920:Y O *D sg13cmos5l_nand3b_1
*CAP
1 *1035:A 0
2 *959:D 0
3 *920:Y 0.000132643
4 *226:35 7.49797e-05
5 *226:22 0.000769055
6 *226:12 0.000844035
7 *226:10 0.000132643
8 *226:10 *298:37 0.000289551
9 *226:10 *373:8 4.71556e-05
10 *226:10 *375:8 0
11 *226:10 *375:36 0
12 *226:10 *385:39 0
13 *226:22 *959:C 4.77425e-05
14 *226:22 *1037:A 0
15 *226:22 *238:8 0.000143999
16 *226:22 *370:89 0.000453271
17 *226:22 *377:25 0
18 *226:22 *380:10 0.000182624
19 *226:22 *380:21 0.000106992
20 *226:22 *380:32 0.000322676
21 *226:22 *380:43 0.000486673
22 *226:22 *380:90 0.000269801
23 *951:B *226:22 0
24 *213:36 *226:35 4.74605e-05
25 *223:35 *226:35 1.53099e-05
*RES
1 *920:Y *226:10 41.6583 
2 *226:10 *226:12 20 
3 *226:12 *226:22 49.5172 
4 *226:22 *959:D 20 
5 *226:12 *226:35 40.8549 
6 *226:35 *1035:A 20 
*END

*D_NET *227 0.0084114
*CONN
*I *923:A2 I *D sg13cmos5l_a21oi_1
*I *942:A2 I *D sg13cmos5l_a21oi_1
*I *921:Y O *D sg13cmos5l_nand3_1
*CAP
1 *923:A2 0
2 *942:A2 0.000135332
3 *921:Y 0.000314301
4 *227:43 0.00156236
5 *227:33 0.00167813
6 *227:16 0.000565406
7 *942:A2 *377:25 0.000110829
8 *227:16 *921:B 7.93152e-05
9 *227:16 *240:10 7.88784e-05
10 *227:16 *373:14 7.54613e-05
11 *227:16 *373:25 0.000321393
12 *227:16 *373:36 0.000323927
13 *227:16 *380:10 0.000128406
14 *227:16 *380:21 0.00012816
15 *227:16 *380:32 0.000345949
16 *227:16 *380:43 0.000185245
17 *227:16 *385:85 0
18 *227:33 *298:18 0.000185295
19 *227:33 *373:36 7.68089e-05
20 *227:33 *373:42 4.99491e-05
21 *227:33 *380:43 5.42181e-05
22 *227:43 *957:D 0
23 *227:43 *1083:A 0.000145135
24 *227:43 *245:12 0.000231646
25 *227:43 *273:35 0
26 *227:43 *370:64 0.000398516
27 *227:43 *370:79 0.000162654
28 *227:43 *370:100 0
29 *227:43 *370:113 0
30 *227:43 *373:81 0
31 *227:43 *375:66 0.000669606
32 *227:43 *381:10 0.000181192
33 bn8 *227:43 0
34 bn9 *227:43 0
35 *923:A1 *227:43 1.54282e-05
36 *134:16 *942:A2 0.000207854
*RES
1 *921:Y *227:16 45.0882 
2 *227:16 *942:A2 41.4008 
3 *227:16 *227:33 41.5347 
4 *227:33 *227:43 36.5109 
5 *227:43 *923:A2 20 
*END

*D_NET *228 0.0043942
*CONN
*I *1034:A I *D sg13cmos5l_buf_1
*I *922:Y O *D sg13cmos5l_nor3_1
*CAP
1 *1034:A 0.000190854
2 *922:Y 0.000365517
3 *228:8 0.000556371
4 *1034:A *246:14 0.000272878
5 *228:8 *240:28 0.00152047
6 *228:8 *256:101 0.0014129
7 *80:10 *228:8 0
8 *132:8 *228:8 7.52149e-05
9 *216:34 *1034:A 0
10 *216:34 *228:8 0
*RES
1 *922:Y *228:8 47.7662 
2 *228:8 *1034:A 41.8334 
*END

*D_NET *229 0.00110523
*CONN
*I *925:A2 I *D sg13cmos5l_a21oi_1
*I *924:Y O *D sg13cmos5l_nand4_1
*CAP
1 *925:A2 0.000189934
2 *924:Y 2.39208e-05
3 *229:8 0.000213855
4 *925:A2 *370:18 0
5 *925:A2 *372:102 0.00014782
6 *229:8 *230:8 0.000129679
7 *73:8 *925:A2 0.000270338
8 *202:39 *229:8 0.000129679
*RES
1 *924:Y *229:8 40.5974 
2 *229:8 *925:A2 42.2505 
*END

*D_NET *230 0.00302384
*CONN
*I *927:A2 I *D sg13cmos5l_a21oi_1
*I *926:Y O *D sg13cmos5l_nand4_1
*CAP
1 *927:A2 0.00063737
2 *926:Y 0.000681695
3 *230:8 0.00131907
4 *927:A2 *767:A 0
5 *927:A2 *931:A2 0.00024063
6 *927:A2 *994:CLK 0
7 *927:A2 *1113:A 0
8 *927:A2 *1133:A 0
9 *927:A2 *234:10 0
10 bn5 *230:8 0
11 *1108:A *927:A2 0
12 *40:18 *927:A2 0
13 *99:12 *927:A2 1.54008e-05
14 *101:12 *927:A2 0
15 *202:39 *230:8 0
16 *229:8 *230:8 0.000129679
*RES
1 *926:Y *230:8 45.2942 
2 *230:8 *927:A2 45.7789 
*END

*D_NET *231 0.000435263
*CONN
*I *929:A2 I *D sg13cmos5l_a21oi_1
*I *928:Y O *D sg13cmos5l_nand4_1
*CAP
1 *929:A2 0.000209931
2 *928:Y 0.000209931
3 *929:A2 *370:18 0
4 *929:A2 *374:24 0
5 *929:A1 *929:A2 1.54008e-05
6 *26:18 *929:A2 0
*RES
1 *928:Y *929:A2 41.9673 
*END

*D_NET *232 0.00079955
*CONN
*I *931:A2 I *D sg13cmos5l_a21oi_1
*I *930:Y O *D sg13cmos5l_nand4_1
*CAP
1 *931:A2 0.00020777
2 *930:Y 0.00020777
3 *931:A2 *343:12 0.00014338
4 *931:A2 *372:102 0
5 *927:A2 *931:A2 0.00024063
6 *101:12 *931:A2 0
*RES
1 *930:Y *931:A2 42.4617 
*END

*D_NET *233 0.000235986
*CONN
*I *933:A2 I *D sg13cmos5l_a21oi_1
*I *932:Y O *D sg13cmos5l_nand4_1
*CAP
1 *933:A2 0.000107087
2 *932:Y 0.000107087
3 *933:A2 *383:43 0
4 *186:41 *933:A2 2.18115e-05
*RES
1 *932:Y *933:A2 41.133 
*END

*D_NET *234 0.00253223
*CONN
*I *935:A2 I *D sg13cmos5l_a21oi_1
*I *934:Y O *D sg13cmos5l_nand4_1
*CAP
1 *935:A2 0
2 *934:Y 0.00101329
3 *234:10 0.00101329
4 *234:10 *767:A 1.54556e-05
5 *234:10 *934:A 0.000144025
6 *234:10 *993:RESET_B 0
7 *234:10 *1024:A 0
8 *234:10 *1092:A 0
9 *234:10 *1096:A 0
10 *234:10 *1133:A 0.00034617
11 *234:10 *254:145 0
12 *234:10 *262:19 0
13 *234:10 *371:8 0
14 *234:10 *372:117 0
15 *927:A2 *234:10 0
16 *943:B *234:10 0
*RES
1 *934:Y *234:10 49.1052 
2 *234:10 *935:A2 40 
*END

*D_NET *235 0.000581542
*CONN
*I *937:A2 I *D sg13cmos5l_a21oi_1
*I *936:Y O *D sg13cmos5l_nand4_1
*CAP
1 *937:A2 0.000179553
2 *936:Y 0.000179553
3 *937:A2 *936:D 0
4 *937:A2 *375:53 0
5 *937:A1 *937:A2 1.54008e-05
6 *134:39 *937:A2 4.77425e-05
7 *223:35 *937:A2 4.77425e-05
8 *225:18 *937:A2 0.000111551
*RES
1 *936:Y *937:A2 41.854 
*END

*D_NET *236 0.000726065
*CONN
*I *939:A2 I *D sg13cmos5l_a21oi_1
*I *938:Y O *D sg13cmos5l_nand4_1
*CAP
1 *939:A2 0.000202411
2 *938:Y 0.000202411
3 *939:A2 *245:28 0.000144894
4 *939:A2 *354:36 0
5 *939:A2 *381:10 0.00017635
6 *939:A2 *381:18 0
7 *938:B *939:A2 0
*RES
1 *938:Y *939:A2 42.2145 
*END

*D_NET *237 0.000601301
*CONN
*I *941:A2 I *D sg13cmos5l_a21oi_1
*I *940:Y O *D sg13cmos5l_nand4_1
*CAP
1 *941:A2 0.00018891
2 *940:Y 0.00018891
3 *941:A2 *273:16 0
4 *941:A2 *377:25 0
5 *941:A1 *941:A2 1.54008e-05
6 *104:24 *941:A2 0.00020808
*RES
1 *940:Y *941:A2 41.7825 
*END

*D_NET *238 0.00350433
*CONN
*I *944:A2 I *D sg13cmos5l_a21oi_1
*I *943:Y O *D sg13cmos5l_nand4_1
*CAP
1 *944:A2 0.000103204
2 *943:Y 0.000210681
3 *238:16 0.000371697
4 *238:8 0.000479174
5 *944:A2 *244:28 0
6 *238:8 *943:A 1.54008e-05
7 *238:8 *375:86 7.97712e-05
8 *238:16 *310:20 8.09323e-05
9 *941:A1 *238:8 0.000273091
10 *13:22 *238:16 0.000827594
11 *79:8 *238:16 0.000774796
12 *107:14 *238:16 8.09323e-05
13 *108:18 *944:A2 1.54556e-05
14 *223:12 *944:A2 4.76068e-05
15 *226:22 *238:8 0.000143999
*RES
1 *943:Y *238:8 42.266 
2 *238:8 *238:16 44.841 
3 *238:16 *944:A2 40.9682 
*END

*D_NET *239 0.00120227
*CONN
*I *946:A2 I *D sg13cmos5l_a21oi_1
*I *945:Y O *D sg13cmos5l_nand4_1
*CAP
1 *946:A2 0.000439894
2 *945:Y 0.000439894
3 *946:A2 *945:A 4.72458e-05
4 *946:A2 *1038:A 8.00842e-05
5 *946:A2 *244:28 0
6 *946:A2 *369:97 1.9636e-05
7 *946:A2 *373:48 0
8 *134:16 *946:A2 0.000175513
9 *223:12 *946:A2 0
*RES
1 *945:Y *946:A2 43.9976 
*END

*D_NET *240 0.0072722
*CONN
*I *948:A2 I *D sg13cmos5l_a21oi_1
*I *947:Y O *D sg13cmos5l_nand4_1
*CAP
1 *948:A2 0
2 *947:Y 0.00030207
3 *240:28 0.00176279
4 *240:16 0.00199317
5 *240:10 0.000532449
6 *240:10 *947:A 4.71685e-05
7 *240:10 *380:6 0.000111173
8 *240:10 *385:85 0
9 *240:10 *405:35 7.65627e-05
10 *240:16 *385:66 0
11 *240:16 *401:55 0
12 *240:28 *245:28 0
13 *240:28 *247:10 0.000290314
14 *240:28 *261:20 0.000177225
15 *240:28 *293:10 0.000144861
16 *240:28 *354:10 0
17 *240:28 *354:36 1.54008e-05
18 *78:18 *240:28 0
19 *105:16 *240:28 0
20 *134:10 *240:10 0.000143017
21 *216:24 *240:16 0
22 *216:34 *240:28 0
23 *223:8 *240:10 7.66483e-05
24 *227:16 *240:10 7.88784e-05
25 *228:8 *240:28 0.00152047
*RES
1 *947:Y *240:10 43.0488 
2 *240:10 *240:16 42.266 
3 *240:16 *240:28 38.128 
4 *240:28 *948:A2 20 
*END

*D_NET *241 0.00383593
*CONN
*I *950:A2 I *D sg13cmos5l_a21oi_1
*I *949:Y O *D sg13cmos5l_nand4_1
*CAP
1 *950:A2 0.000741657
2 *949:Y 0.000481407
3 *241:8 0.00122306
4 *950:A2 *1003:RESET_B 0
5 *950:A2 *1005:RESET_B 0
6 *950:A2 *1094:A 0
7 *950:A2 *261:12 0
8 *950:A2 *296:45 0
9 *950:A2 *300:16 0.000533371
10 *241:8 *261:20 0
11 *241:8 *308:8 0
12 *13:22 *241:8 0
13 *15:24 *950:A2 0
14 *78:18 *241:8 0.000818937
15 *103:14 *950:A2 0
16 *111:18 *950:A2 1.54008e-05
17 *202:60 *241:8 2.20966e-05
*RES
1 *949:Y *241:8 46.283 
2 *241:8 *950:A2 47.4572 
*END

*D_NET *242 0.00640829
*CONN
*I *952:A2 I *D sg13cmos5l_a21oi_1
*I *951:Y O *D sg13cmos5l_nand4_1
*CAP
1 *952:A2 0
2 *951:Y 0
3 *242:16 0.000251018
4 *242:10 0.0014691
5 *242:6 0.00121808
6 *242:10 *254:87 0
7 *242:10 *254:89 0
8 *242:10 *273:16 0.000608207
9 *242:10 *298:18 0
10 *242:10 *310:20 0.00201485
11 *242:10 *317:14 8.09323e-05
12 *242:16 *1032:A 0
13 *242:16 *369:12 0.000766105
14 *83:8 *242:16 0
*RES
1 *951:Y *242:6 40 
2 *242:6 *242:10 35.0277 
3 *242:10 *242:16 43.5638 
4 *242:16 *952:A2 20 
*END

*D_NET *243 0.010067
*CONN
*I *954:A2 I *D sg13cmos5l_a21oi_1
*I *953:Y O *D sg13cmos5l_nand4_1
*CAP
1 *954:A2 0
2 *953:Y 0.000715503
3 *243:30 0.000646774
4 *243:22 0.00244336
5 *243:10 0.00251209
6 *243:10 *953:A 1.54008e-05
7 *243:10 *1004:D 0.000177257
8 *243:10 *250:10 0.000556129
9 *243:10 *273:24 0.000241351
10 *243:10 *369:89 0
11 *243:10 *407:16 0
12 *243:22 *966:B 0
13 *243:22 *966:C 0
14 *243:22 *1009:D 0.000489454
15 *243:22 *1015:CLK 0.000339623
16 *243:22 *244:28 0
17 *243:22 *272:10 0.000242181
18 *243:22 *312:14 0
19 *243:22 *397:20 0.000177214
20 *243:22 *398:46 0.000144752
21 *243:22 *398:68 0
22 *243:22 *398:87 0.000111416
23 *243:30 *778:A 0
24 *243:30 *780:A 0
25 *243:30 *781:A 0
26 *243:30 *312:14 0
27 *243:30 *316:21 0.00087277
28 *956:A1 *243:22 0
29 *21:10 *243:30 0.000144768
30 *104:8 *243:10 0
31 *106:20 *243:10 0
32 *109:12 *243:10 0.000236962
33 *111:12 *243:22 0
34 *113:8 *243:30 0
*RES
1 *953:Y *243:10 48.1473 
2 *243:10 *243:22 37.9117 
3 *243:22 *243:30 48.24 
4 *243:30 *954:A2 20 
*END

*D_NET *244 0.00588286
*CONN
*I *956:A2 I *D sg13cmos5l_a21oi_1
*I *955:Y O *D sg13cmos5l_nand4_1
*CAP
1 *956:A2 0.000432124
2 *955:Y 0.000470694
3 *244:28 0.00142564
4 *244:14 0.00146421
5 *956:A2 *272:10 0
6 *956:A2 *305:26 0.000182713
7 *956:A2 *397:20 0
8 *956:A2 *397:41 8.00842e-05
9 *244:14 *955:A 4.72458e-05
10 *244:14 *375:22 4.77425e-05
11 *244:14 *375:53 0
12 *244:14 *385:85 0
13 *244:28 *963:A 0.000144156
14 *244:28 *966:B 0
15 *244:28 *1012:D 0.00020888
16 *244:28 *1139:A 0.000112108
17 *244:28 *272:10 0.000242023
18 *244:28 *369:97 1.97059e-05
19 *244:28 *397:41 0
20 *244:28 *398:87 0.000112667
21 *244:28 *408:10 0.000176658
22 *944:A2 *244:28 0
23 *946:A1 *244:28 0
24 *946:A2 *244:28 0
25 *961:B *244:14 0
26 *85:10 *956:A2 0
27 *108:18 *244:28 0.000112543
28 *111:12 *956:A2 0.000144768
29 *216:34 *244:14 0
30 *223:8 *244:14 7.53765e-05
31 *223:12 *244:14 0.000208003
32 *223:35 *244:14 0.000175513
33 *243:22 *244:28 0
*RES
1 *955:Y *244:14 44.6762 
2 *244:14 *244:28 49.8777 
3 *244:28 *956:A2 44.2951 
*END

*D_NET *245 0.0116708
*CONN
*I *958:A2 I *D sg13cmos5l_a21oi_1
*I *957:Y O *D sg13cmos5l_nand4_1
*CAP
1 *958:A2 0
2 *957:Y 9.13108e-05
3 *245:42 0.000659074
4 *245:28 0.00300148
5 *245:12 0.00243372
6 *245:12 *957:C 0
7 *245:12 *273:35 0.000231646
8 *245:12 *372:73 1.54008e-05
9 *245:28 *1007:CLK 0
10 *245:28 *1198:A 0.000905991
11 *245:28 *261:20 0.000338733
12 *245:28 *351:10 0.000242203
13 *245:28 *354:36 1.53931e-05
14 *245:28 *367:10 0.000533542
15 *245:28 *372:12 1.54008e-05
16 *245:28 *381:18 0.000150128
17 *245:28 *381:24 0.000144691
18 *245:42 *260:37 7.52149e-05
19 *245:42 *298:24 0
20 *245:42 *313:8 0.000552963
21 bp7 *245:42 0
22 *939:A2 *245:28 0.000144894
23 *948:A1 *245:28 0
24 *1100:A *245:28 0.000112651
25 *18:16 *245:42 8.00842e-05
26 *19:10 *245:28 0.000112379
27 *87:12 *245:42 0.000234311
28 *103:10 *245:42 0.00108672
29 *112:10 *245:42 0.000181192
30 *115:12 *245:42 8.00842e-05
31 *216:34 *245:12 0
32 *216:34 *245:28 0
33 *227:43 *245:12 0.000231646
34 *240:28 *245:28 0
*RES
1 *957:Y *245:12 41.5141 
2 *245:12 *245:28 43.2121 
3 *245:28 *245:42 49.2597 
4 *245:42 *958:A2 20 
*END

*D_NET *246 0.00610616
*CONN
*I *960:A2 I *D sg13cmos5l_a21oi_1
*I *959:Y O *D sg13cmos5l_nand4_1
*CAP
1 *960:A2 0
2 *959:Y 0.00230483
3 *246:14 0.00230483
4 *246:14 *773:A 0.000242045
5 *246:14 *949:A 0
6 *246:14 *1007:D 0
7 *246:14 *1029:A 0.00027273
8 *246:14 *1032:A 0
9 *246:14 *1198:A 0
10 *246:14 *259:66 0
11 *246:14 *369:8 0
12 *246:14 *369:89 0
13 *246:14 *372:12 0
14 *246:14 *396:23 0
15 *246:14 *396:36 8.0216e-05
16 *246:14 *407:16 0
17 *960:A1 *246:14 1.54556e-05
18 *1034:A *246:14 0.000272878
19 *1088:A *246:14 8.03692e-05
20 *1095:A *246:14 0.000532804
21 *1110:A *246:14 0
22 *1143:A *246:14 0
23 *87:12 *246:14 0
24 *106:20 *246:14 0
25 *216:34 *246:14 0
*RES
1 *959:Y *246:14 41.7457 
2 *246:14 *960:A2 20 
*END

*D_NET *247 0.00128229
*CONN
*I *1139:A I *D sg13cmos5l_dlygate4sd3_1
*I *961:Y O *D sg13cmos5l_nand2_1
*CAP
1 *1139:A 6.25119e-05
2 *961:Y 0.000176271
3 *247:10 0.000238783
4 *247:10 *405:35 0
5 *108:18 *1139:A 0.000112108
6 *108:18 *247:10 0
7 *216:34 *247:10 0.000290192
8 *240:28 *247:10 0.000290314
9 *244:28 *1139:A 0.000112108
*RES
1 *961:Y *247:10 42.3072 
2 *247:10 *1139:A 40.7519 
*END

*D_NET *248 0.00435793
*CONN
*I *963:B I *D sg13cmos5l_nand2_1
*I *962:Y O *D sg13cmos5l_nand3_1
*CAP
1 *963:B 0.000116656
2 *962:Y 0.000586862
3 *248:10 0.000703518
4 *963:B *966:B 0.000144831
5 *963:B *249:10 4.75212e-05
6 *248:10 *787:B 0
7 *248:10 *249:10 0.000608747
8 *248:10 *256:101 0
9 *918:A *248:10 0
10 *922:A *248:10 0.000212127
11 *108:18 *963:B 4.78524e-05
12 *125:12 *248:10 0.00120095
13 *135:10 *248:10 0.000236327
14 *137:12 *248:10 0.000452539
15 *170:14 *248:10 0
*RES
1 *962:Y *248:10 49.2906 
2 *248:10 *963:B 41.1845 
*END

*D_NET *249 0.00340798
*CONN
*I *964:B I *D sg13cmos5l_nand2_1
*I *963:Y O *D sg13cmos5l_nand2_1
*CAP
1 *964:B 0.000593188
2 *963:Y 0.000217052
3 *249:10 0.000810241
4 *964:B *803:A1 0
5 *964:B *388:12 0.000336774
6 *964:B *388:37 0
7 *964:B *405:35 0
8 *249:10 *407:16 0
9 *917:A *964:B 0.000175513
10 *917:B *964:B 0.000336005
11 *963:B *249:10 4.75212e-05
12 *108:18 *249:10 4.75212e-05
13 *224:14 *249:10 0.000235421
14 *248:10 *249:10 0.000608747
*RES
1 *963:Y *249:10 43.3887 
2 *249:10 *964:B 45.9946 
*END

*D_NET *250 0.00168604
*CONN
*I *1142:A I *D sg13cmos5l_dlygate4sd3_1
*I *965:Y O *D sg13cmos5l_o21ai_1
*CAP
1 *1142:A 0
2 *965:Y 0.00045279
3 *250:10 0.00045279
4 *250:10 *966:B 0.000208879
5 *250:10 *254:87 0
6 *250:10 *385:66 0
7 *250:10 *408:10 0
8 *1069:A *250:10 1.54556e-05
9 *109:12 *250:10 0
10 *243:10 *250:10 0.000556129
*RES
1 *965:Y *250:10 45.2118 
2 *250:10 *1142:A 40 
*END

*D_NET *251 0.00404839
*CONN
*I *885:A I *D sg13cmos5l_nor4_1
*I *871:A I *D sg13cmos5l_nor4_1
*I *798:A I *D sg13cmos5l_nor3_1
*I *895:A I *D sg13cmos5l_nor4_1
*I *904:A I *D sg13cmos5l_nor4_1
*I *890:A I *D sg13cmos5l_nor3_1
*I *757:Y O *D sg13cmos5l_inv_1
*CAP
1 *885:A 0.000293025
2 *871:A 0
3 *798:A 0.000198126
4 *895:A 0
5 *904:A 0.00022533
6 *890:A 3.2268e-05
7 *757:Y 0
8 *251:16 0.000403243
9 *251:12 0.000236544
10 *251:10 0.000353692
11 *251:8 0.000233953
12 *251:4 0.000462311
13 *798:A *389:78 0.00014357
14 *798:A *438:53 0
15 *885:A *885:B 0.000112535
16 *885:A *437:20 0.000251538
17 *885:A *438:65 0.000133661
18 *890:A *403:14 0
19 *904:A *392:84 1.54008e-05
20 *251:8 *871:C 0.000107498
21 *251:8 *389:82 2.21831e-05
22 *251:8 *438:65 0
23 *251:10 *389:82 0.000182023
24 *251:12 *389:82 7.51285e-05
25 *757:A *885:A 0.000112426
26 *890:B *904:A 0.000272747
27 *129:25 *798:A 0
28 *171:8 *251:8 0
29 *171:8 *251:10 0
30 *171:8 *251:16 0
31 *186:10 *251:8 0.000181192
32 *206:59 *251:12 0
33 *206:59 *251:16 0
34 *206:67 *904:A 0
*RES
1 *757:Y *251:4 20 
2 *251:4 *251:8 21.8334 
3 *251:8 *251:10 0.8446 
4 *251:10 *251:12 0.8446 
5 *251:12 *251:16 21.0918 
6 *251:16 *890:A 20.3502 
7 *251:16 *904:A 22.266 
8 *251:12 *895:A 40 
9 *251:10 *798:A 41.8334 
10 *251:8 *871:A 40 
11 *251:4 *885:A 23.2136 
*END

*D_NET *253 0.000732746
*CONN
*I *1015:D I *D sg13cmos5l_dfrbpq_1
*I *790:Y O *D sg13cmos5l_inv_1
*CAP
1 *1015:D 0
2 *790:Y 0.000130817
3 *253:8 0.000130817
4 *253:8 *259:26 0
5 *253:8 *398:14 7.52149e-05
6 *253:8 *398:40 0.000395897
*RES
1 *790:Y *253:8 42.0806 
2 *253:8 *1015:D 40 
*END

*D_NET *254 0.0291794
*CONN
*I *1019:A I *D sg13cmos5l_buf_8
*I *1017:A I *D sg13cmos5l_buf_8
*I *1024:A I *D sg13cmos5l_buf_8
*I *1023:A I *D sg13cmos5l_buf_8
*I *1022:A I *D sg13cmos5l_buf_8
*I *1021:A I *D sg13cmos5l_buf_8
*I *1020:A I *D sg13cmos5l_buf_8
*I *1018:A I *D sg13cmos5l_buf_8
*I *1016:X O *D sg13cmos5l_buf_8
*CAP
1 *1019:A 0
2 *1017:A 0
3 *1024:A 0.000139912
4 *1023:A 0.000118871
5 *1022:A 0
6 *1021:A 0
7 *1020:A 0.000113763
8 *1018:A 0.000233041
9 *1016:X 0.000141027
10 *254:179 0
11 *254:173 0.00192668
12 *254:167 0.00376131
13 *254:145 0.000740317
14 *254:127 0.00181761
15 *254:107 0.00233612
16 *254:95 0
17 *254:89 0.000683816
18 *254:87 0.00162119
19 *254:79 0.00235117
20 *254:75 0.00331339
21 *254:63 0.000281033
22 *254:59 0.00125888
23 *254:55 0.00366989
24 *254:35 0.000419626
25 *254:27 0.00114021
26 *254:17 0.00262461
27 *254:6 0.000406566
28 *1018:A *806:A 0
29 *1023:A *261:8 8.03692e-05
30 *1023:A *261:10 0
31 *1023:A *288:6 0
32 *1024:A *1092:A 0
33 *1024:A *1096:A 0
34 *254:6 *384:52 0
35 *254:6 *449:14 0
36 *254:17 *384:52 0
37 *254:17 *400:10 0
38 *254:17 *449:14 0
39 *254:59 *321:24 0
40 *254:59 *413:10 0
41 *254:75 *321:24 0
42 *254:75 *370:24 0
43 *254:75 *372:102 0
44 *254:79 *298:14 0
45 *254:79 *298:18 0
46 *254:87 *272:10 0
47 *254:87 *298:18 0
48 *254:87 *305:26 0
49 *254:89 *298:18 0
50 *254:89 *317:14 0
51 *254:107 *305:26 0
52 *254:127 *261:10 0
53 *254:127 *288:6 0
54 *254:127 *288:25 0
55 *254:127 *291:10 0
56 *254:127 *296:45 0
57 *254:127 *305:26 0
58 *254:127 *369:44 0
59 *254:145 *1096:A 0
60 *254:145 *304:10 0
61 *254:145 *321:14 0
62 *254:145 *321:24 0
63 *254:167 *303:45 0
64 *254:167 *321:24 0
65 *254:167 *411:8 0
66 *254:167 *411:23 0
67 *254:167 *414:8 0
68 *254:167 *419:12 0
69 *254:167 *419:25 0
70 *254:173 *257:10 0
71 *254:173 *411:8 0
72 bn5 *254:75 0
73 bn5 *254:145 0
74 *867:B *254:55 0
75 *5:32 *1020:A 0
76 *5:32 *254:63 0
77 *14:10 *254:127 0
78 *25:10 *1020:A 0
79 *25:10 *254:63 0
80 *40:18 *254:167 0
81 *72:8 *254:145 0
82 *82:8 *254:107 0
83 *82:8 *254:127 0
84 *88:16 *254:79 0
85 *98:14 *254:79 0
86 *98:20 *254:75 0
87 *101:12 *254:167 0
88 *107:8 *254:107 0
89 *107:8 *254:127 0
90 *133:26 *254:27 0
91 *133:26 *254:35 0
92 *137:12 *254:27 0
93 *137:34 *1018:A 0
94 *148:97 *254:35 0
95 *200:8 *254:167 0
96 *202:39 *254:59 0
97 *202:39 *254:75 0
98 *206:16 *254:55 0
99 *206:24 *254:79 0
100 *209:33 *254:173 0
101 *211:10 *254:167 0
102 *211:10 *254:173 0
103 *211:16 *254:173 0
104 *212:12 *254:173 0
105 *234:10 *1024:A 0
106 *234:10 *254:145 0
107 *242:10 *254:87 0
108 *242:10 *254:89 0
109 *250:10 *254:87 0
*RES
1 *1016:X *254:6 21.1639 
2 *254:6 *254:17 22.3381 
3 *254:17 *254:27 49.6717 
4 *254:27 *254:35 21.6995 
5 *254:35 *1018:A 21.8849 
6 *254:17 *254:55 31.1137 
7 *254:55 *254:59 24.0582 
8 *254:59 *254:63 21.4008 
9 *254:63 *1020:A 20.9682 
10 *254:59 *254:75 6.0358 
11 *254:75 *254:79 40.4352 
12 *254:79 *254:87 43.2342 
13 *254:87 *254:89 7.4572 
14 *254:89 *254:95 40 
15 *254:95 *1021:A 20 
16 *254:87 *254:107 26.3242 
17 *254:107 *1022:A 40 
18 *254:107 *254:127 34.7496 
19 *254:127 *1023:A 21.2566 
20 *254:75 *254:145 25.5517 
21 *254:145 *1024:A 21.1845 
22 *254:55 *254:167 36.0268 
23 *254:167 *254:173 42.145 
24 *254:173 *254:179 40 
25 *254:179 *1017:A 20 
26 *254:167 *1019:A 40 
*END

*D_NET *255 0.0088118
*CONN
*I *973:CLK I *D sg13cmos5l_dfrbpq_1
*I *975:CLK I *D sg13cmos5l_dfrbpq_1
*I *977:CLK I *D sg13cmos5l_dfrbpq_1
*I *978:CLK I *D sg13cmos5l_dfrbpq_1
*I *974:CLK I *D sg13cmos5l_dfrbpq_1
*I *972:CLK I *D sg13cmos5l_dfrbpq_1
*I *971:CLK I *D sg13cmos5l_dfrbpq_1
*I *1017:X O *D sg13cmos5l_buf_8
*CAP
1 *973:CLK 0.000568621
2 *975:CLK 0
3 *977:CLK 4.59487e-05
4 *978:CLK 0
5 *974:CLK 0
6 *972:CLK 0
7 *971:CLK 0
8 *1017:X 0.000606258
9 *255:76 0.000730762
10 *255:62 0.000736803
11 *255:52 0.00118601
12 *255:46 0.000739995
13 *255:22 0.000644544
14 *255:12 0.00108018
15 *255:8 0.000867301
16 *973:CLK *329:10 0
17 *973:CLK *395:88 0
18 *255:8 *975:RESET_B 0
19 *255:8 *401:17 0
20 *255:12 *395:10 0
21 *255:12 *395:18 0
22 *255:22 *333:10 0
23 *255:22 *334:30 4.77425e-05
24 *255:22 *395:18 0
25 *255:22 *443:8 0
26 *255:46 *975:RESET_B 0
27 *255:52 *401:17 0
28 *255:62 *1054:A 0
29 *255:62 *337:10 0.000176274
30 *255:62 *401:17 0
31 *255:62 *401:32 0
32 *831:B *255:22 0
33 *833:B *255:22 0.000209637
34 *835:A2 *255:22 0
35 *844:A *973:CLK 0
36 *845:C *255:12 0.00017723
37 *856:A1 *255:62 8.0216e-05
38 *856:A2 *255:62 0
39 *911:A1 *255:62 0
40 *975:D *255:52 0.000307166
41 *1119:A *255:8 0
42 *1119:A *255:12 0
43 *1122:A *973:CLK 0
44 *51:8 *255:52 0
45 *51:8 *255:76 0
46 *54:10 *255:62 0
47 *148:44 *255:12 0
48 *160:12 *255:12 0
49 *160:12 *255:22 0.000607109
50 *171:52 *973:CLK 0
51 *171:52 *255:52 0
52 *171:52 *255:76 0
*RES
1 *1017:X *255:8 24.841 
2 *255:8 *255:12 4.841 
3 *255:12 *255:22 46.9216 
4 *255:22 *971:CLK 20 
5 *255:12 *972:CLK 20 
6 *255:8 *974:CLK 20 
7 *1017:X *255:46 41.6171 
8 *255:46 *255:52 24.4702 
9 *255:52 *255:62 47.2924 
10 *255:62 *978:CLK 20 
11 *255:52 *977:CLK 20.9682 
12 *255:46 *255:76 1.8334 
13 *255:76 *975:CLK 40 
14 *255:76 *973:CLK 46.3242 
*END

*D_NET *256 0.0170109
*CONN
*I *1012:CLK I *D sg13cmos5l_dfrbpq_1
*I *981:CLK I *D sg13cmos5l_dfrbpq_1
*I *980:CLK I *D sg13cmos5l_dfrbpq_1
*I *1025:A I *D sg13cmos5l_inv_1
*I *967:CLK I *D sg13cmos5l_dfrbpq_1
*I *969:CLK I *D sg13cmos5l_dfrbpq_1
*I *976:CLK I *D sg13cmos5l_dfrbpq_1
*I *1018:X O *D sg13cmos5l_buf_8
*CAP
1 *1012:CLK 0
2 *981:CLK 0.000669484
3 *980:CLK 0
4 *1025:A 0
5 *967:CLK 0.000470555
6 *969:CLK 0.000253205
7 *976:CLK 0.000817068
8 *1018:X 0.000883046
9 *256:101 0.00107628
10 *256:86 0.00216573
11 *256:45 0.00182986
12 *256:27 0.00133907
13 *256:25 0.000232965
14 *256:10 0.00128015
15 *967:CLK *812:C 0
16 *967:CLK *821:C 0
17 *967:CLK *283:10 0
18 *969:CLK *817:B1 0
19 *969:CLK *821:C 0
20 *976:CLK *797:A_N 0
21 *976:CLK *865:A2 0
22 *976:CLK *980:RESET_B 0.000122871
23 *976:CLK *384:21 0
24 *976:CLK *387:12 0.000112766
25 *976:CLK *387:21 0.000209725
26 *976:CLK *387:36 0
27 *976:CLK *391:103 0.000112333
28 *976:CLK *445:12 0
29 *981:CLK *785:A 0
30 *981:CLK *804:A2 0
31 *981:CLK *388:37 0
32 *981:CLK *400:16 0
33 *256:10 *346:10 0.000236202
34 *256:10 *448:12 0
35 *256:10 *448:14 8.01116e-05
36 *256:27 *763:A 0
37 *256:27 *775:A 0
38 *256:45 *763:A 0
39 *256:45 *810:A 0
40 *256:45 *830:A 0.000182276
41 *256:45 *830:D 0
42 *256:45 *285:35 0.000307002
43 *256:45 *441:8 0.000285159
44 *256:86 *789:C 0.000466224
45 *256:86 *269:8 0
46 *256:86 *269:12 0.000241297
47 *256:86 *325:53 7.5326e-05
48 *256:86 *335:34 0
49 *256:101 *354:10 0
50 *256:101 *388:16 0
51 *256:101 *407:16 0
52 *256:101 *447:56 0
53 *788:A *981:CLK 0.000144261
54 *791:A *981:CLK 0.000208609
55 *792:B *256:10 0.000551896
56 *804:C1 *981:CLK 0
57 *810:C *256:45 0
58 *810:D *256:45 0.000272878
59 *847:A *256:86 3.15716e-05
60 *865:B1 *976:CLK 0
61 *866:A2 *256:27 0
62 *866:A2 *256:45 0
63 *922:A *256:101 0
64 *980:D *976:CLK 0
65 *23:12 *981:CLK 0
66 *24:26 *976:CLK 0
67 *43:8 *967:CLK 0
68 *80:10 *256:101 0
69 *90:18 *981:CLK 0
70 *108:18 *256:10 0
71 *118:8 *981:CLK 8.0216e-05
72 *118:14 *256:101 0
73 *118:42 *981:CLK 9.61894e-05
74 *125:12 *256:101 0
75 *126:12 *976:CLK 0
76 *126:12 *256:10 0
77 *128:12 *976:CLK 4.78521e-05
78 *136:57 *967:CLK 0.000715857
79 *136:57 *256:45 0
80 *137:34 *256:10 0
81 *143:10 *967:CLK 0
82 *143:10 *256:45 0
83 *146:12 *969:CLK 0
84 *148:20 *976:CLK 0
85 *148:20 *256:10 0
86 *148:30 *256:45 0
87 *150:23 *256:45 0
88 *153:10 *256:45 0
89 *228:8 *256:101 0.0014129
90 *248:10 *256:101 0
*RES
1 *1018:X *256:10 45.5826 
2 *256:10 *976:CLK 48.652 
3 *256:10 *256:25 20 
4 *256:25 *256:27 2.266 
5 *256:27 *256:45 31.5772 
6 *256:45 *969:CLK 42.8222 
7 *256:45 *967:CLK 45.7886 
8 *256:27 *1025:A 20 
9 *256:25 *980:CLK 20 
10 *1018:X *256:86 44.4496 
11 *256:86 *981:CLK 46.3242 
12 *256:86 *256:101 31.4742 
13 *256:101 *1012:CLK 20 
*END

*D_NET *257 0.00727293
*CONN
*I *986:CLK I *D sg13cmos5l_dfrbpq_1
*I *987:CLK I *D sg13cmos5l_dfrbpq_1
*I *1026:A I *D sg13cmos5l_inv_1
*I *988:CLK I *D sg13cmos5l_dfrbpq_1
*I *989:CLK I *D sg13cmos5l_dfrbpq_1
*I *991:CLK I *D sg13cmos5l_dfrbpq_1
*I *990:CLK I *D sg13cmos5l_dfrbpq_1
*I *1019:X O *D sg13cmos5l_buf_8
*CAP
1 *986:CLK 0.000728164
2 *987:CLK 0
3 *1026:A 7.27717e-05
4 *988:CLK 0.00012961
5 *989:CLK 5.42626e-05
6 *991:CLK 0
7 *990:CLK 0.00019002
8 *1019:X 0.000625143
9 *257:74 0.00101876
10 *257:22 0.000719946
11 *257:16 0.000792613
12 *257:12 0.000436486
13 *257:10 0.000505767
14 *986:CLK *986:RESET_B 0
15 *986:CLK *1064:A 0
16 *986:CLK *379:36 1.54008e-05
17 *986:CLK *386:96 0
18 *986:CLK *394:92 0
19 *988:CLK *1150:A 0.000242039
20 *988:CLK *424:14 0.000241908
21 *989:CLK *906:B1 0
22 *989:CLK *394:53 0
23 *990:CLK *394:35 0
24 *990:CLK *394:44 0
25 *990:CLK *430:14 0
26 *1026:A *263:16 0
27 *1026:A *424:14 0
28 *257:10 *903:B1 0
29 *257:10 *263:16 0
30 *257:10 *394:77 0
31 *257:10 *425:8 0
32 *257:12 *903:B1 0
33 *257:12 *263:16 0
34 *257:16 *263:16 0
35 *257:16 *363:8 0.000532395
36 *257:22 *903:B1 0
37 *257:22 *906:B1 0
38 *257:22 *263:16 0
39 *257:22 *363:8 0.000287672
40 *257:22 *430:14 0
41 *257:74 *394:92 0
42 *901:B *257:74 0
43 *903:A1 *257:22 0.000144673
44 *1151:A *257:10 1.54008e-05
45 *1153:A *257:10 0
46 *1153:A *257:74 0
47 *1159:A *257:22 0
48 *30:10 *986:CLK 0
49 *211:10 *257:10 0.000181325
50 *211:10 *257:74 0
51 *215:8 *257:22 0.000338568
52 *254:173 *257:10 0
*RES
1 *1019:X *257:10 43.8213 
2 *257:10 *257:12 1.0918 
3 *257:12 *257:16 3.1415 
4 *257:16 *257:22 25.768 
5 *257:22 *990:CLK 22.1836 
6 *257:22 *991:CLK 20 
7 *257:16 *989:CLK 40.5356 
8 *257:12 *988:CLK 41.6171 
9 *257:10 *1026:A 40.7519 
10 *1019:X *257:74 42.7089 
11 *257:74 *987:CLK 40 
12 *257:74 *986:CLK 46.6332 
*END

*D_NET *258 0.0108612
*CONN
*I *1013:CLK I *D sg13cmos5l_dfrbpq_1
*I *983:CLK I *D sg13cmos5l_dfrbpq_1
*I *1027:A I *D sg13cmos5l_inv_1
*I *982:CLK I *D sg13cmos5l_dfrbpq_1
*I *999:CLK I *D sg13cmos5l_dfrbpq_1
*I *984:CLK I *D sg13cmos5l_dfrbpq_1
*I *985:CLK I *D sg13cmos5l_dfrbpq_1
*I *1020:X O *D sg13cmos5l_buf_8
*CAP
1 *1013:CLK 0.00040522
2 *983:CLK 0
3 *1027:A 0
4 *982:CLK 0
5 *999:CLK 0.000177906
6 *984:CLK 0.000206398
7 *985:CLK 0.000192121
8 *1020:X 0.000685472
9 *258:51 0.000847772
10 *258:43 0.000911912
11 *258:39 0.000493202
12 *258:35 0.000446992
13 *258:8 0.000482937
14 *984:CLK *1147:A 4.77425e-05
15 *984:CLK *314:24 0
16 *984:CLK *422:10 0
17 *985:CLK *419:25 0
18 *999:CLK *302:8 0
19 *999:CLK *343:12 0.00027343
20 *258:35 *400:61 0
21 *258:43 *385:21 0
22 *258:51 *263:53 0
23 *258:51 *355:14 0
24 *258:51 *377:33 0.000183809
25 *258:51 *377:55 0
26 *258:51 *383:39 0
27 *258:51 *383:105 0
28 *881:A2 *258:43 0
29 *3:30 *984:CLK 0.000338717
30 *5:16 *258:51 0
31 *5:32 *1013:CLK 0
32 *5:32 *258:35 0
33 *5:32 *258:39 0.000145116
34 *5:32 *258:43 0
35 *25:10 *1013:CLK 0.0004989
36 *40:18 *985:CLK 0.000658453
37 *40:18 *258:8 0.000424217
38 *101:12 *985:CLK 0.00081751
39 *101:12 *258:8 0.000446313
40 *102:22 *258:51 0.00135411
41 *193:29 *258:51 0.000822981
42 *195:12 *258:35 0
43 *195:12 *258:39 0
*RES
1 *1020:X *258:8 42.0806 
2 *258:8 *985:CLK 43.811 
3 *258:8 *984:CLK 42.266 
4 *1020:X *258:35 21.751 
5 *258:35 *258:39 2.8634 
6 *258:39 *258:43 1.322 
7 *258:43 *258:51 49.0434 
8 *258:51 *999:CLK 21.8334 
9 *258:43 *982:CLK 20 
10 *258:39 *1027:A 20 
11 *258:35 *983:CLK 20 
12 *1020:X *1013:CLK 44.4393 
*END

*D_NET *259 0.00689045
*CONN
*I *1009:CLK I *D sg13cmos5l_dfrbpq_1
*I *1014:CLK I *D sg13cmos5l_dfrbpq_1
*I *979:CLK I *D sg13cmos5l_dfrbpq_1
*I *970:CLK I *D sg13cmos5l_dfrbpq_1
*I *1028:A I *D sg13cmos5l_inv_1
*I *968:CLK I *D sg13cmos5l_dfrbpq_1
*I *1015:CLK I *D sg13cmos5l_dfrbpq_1
*I *1021:X O *D sg13cmos5l_buf_8
*CAP
1 *1009:CLK 3.06411e-05
2 *1014:CLK 0.000373183
3 *979:CLK 0.000469099
4 *970:CLK 0
5 *1028:A 0.000168164
6 *968:CLK 4.72978e-05
7 *1015:CLK 0.000176968
8 *1021:X 0.000176968
9 *259:66 0.000709972
10 *259:44 0.000823705
11 *259:26 0.000348373
12 *259:20 0.000842962
13 *259:18 0.000661591
14 *979:CLK *776:A 0
15 *979:CLK *966:B 0
16 *979:CLK *440:12 0
17 *1014:CLK *1007:D 0.000177032
18 *1014:CLK *372:24 0.00030268
19 *1028:A *398:12 0
20 *259:20 *396:50 0
21 *259:26 *398:12 0
22 *259:44 *285:10 0
23 *259:44 *398:12 0
24 *259:44 *440:12 0
25 *259:44 *440:27 0
26 *259:66 *1032:A 0.000128123
27 *259:66 *369:12 0
28 *259:66 *372:24 0
29 *259:66 *396:50 0
30 *790:A *259:44 0
31 *829:A *979:CLK 0
32 *829:A *259:44 0
33 *966:A *979:CLK 0.000467914
34 *966:A *259:44 0
35 *1143:A *1014:CLK 0.000306531
36 *109:12 *979:CLK 0
37 *111:12 *1015:CLK 0.000339623
38 *243:22 *1015:CLK 0.000339623
39 *246:14 *259:66 0
40 *253:8 *259:26 0
*RES
1 *1021:X *1015:CLK 42.266 
2 *1021:X *259:18 40 
3 *259:18 *259:20 4.0582 
4 *259:20 *259:26 21.5965 
5 *259:26 *968:CLK 20.5974 
6 *259:26 *1028:A 21.8334 
7 *259:20 *259:44 23.3475 
8 *259:44 *970:CLK 20 
9 *259:44 *979:CLK 25.1912 
10 *259:18 *259:66 23.2033 
11 *259:66 *1014:CLK 23.9964 
12 *259:66 *1009:CLK 20.3502 
*END

*D_NET *260 0.0125993
*CONN
*I *1005:CLK I *D sg13cmos5l_dfrbpq_1
*I *1006:CLK I *D sg13cmos5l_dfrbpq_1
*I *1010:CLK I *D sg13cmos5l_dfrbpq_1
*I *1011:CLK I *D sg13cmos5l_dfrbpq_1
*I *1007:CLK I *D sg13cmos5l_dfrbpq_1
*I *1029:A I *D sg13cmos5l_inv_1
*I *1008:CLK I *D sg13cmos5l_dfrbpq_1
*I *1022:X O *D sg13cmos5l_buf_8
*CAP
1 *1005:CLK 0.000487841
2 *1006:CLK 0
3 *1010:CLK 0
4 *1011:CLK 3.02509e-05
5 *1007:CLK 0.000626212
6 *1029:A 0.00056324
7 *1008:CLK 0
8 *1022:X 0.000339115
9 *260:71 0.000531156
10 *260:37 0.00124191
11 *260:33 0.000635984
12 *260:25 0.00120238
13 *260:14 0.00100314
14 *260:12 0.000397356
15 *260:10 0.000339115
16 *1005:CLK *950:B1 8.00842e-05
17 *1005:CLK *296:45 0.000339393
18 *1005:CLK *369:44 0
19 *1007:CLK *351:10 0.00024211
20 *1029:A *1197:A 4.78524e-05
21 *1029:A *1198:A 0
22 *1029:A *366:8 0.000446855
23 *1029:A *396:103 0
24 *260:10 *1003:RESET_B 0
25 *260:10 *300:16 8.02102e-05
26 *260:10 *300:39 0.00012816
27 *260:14 *1109:A 0.000176601
28 *260:14 *369:44 0
29 *260:25 *1109:A 0
30 *260:25 *278:41 0.000466302
31 *260:33 *396:103 0.000448723
32 *260:37 *366:8 0.000159839
33 bp4 *260:10 0.000290129
34 bp8 *260:33 0
35 *948:A1 *1007:CLK 0
36 *952:A1 *1007:CLK 0.000337754
37 *960:A1 *1029:A 0
38 *1090:A *1005:CLK 0
39 *1090:A *260:14 0
40 *1090:A *260:25 0.000307057
41 *15:24 *1005:CLK 0
42 *15:24 *260:14 0.000306772
43 *15:24 *260:25 0.000369679
44 *15:24 *260:71 6.46834e-05
45 *19:10 *1007:CLK 0.000208633
46 *19:10 *260:33 0
47 *81:12 *260:10 0
48 *84:12 *1011:CLK 8.01776e-05
49 *84:12 *260:33 0.00027267
50 *105:16 *1007:CLK 0
51 *112:10 *1029:A 0
52 *112:10 *260:37 0
53 *115:12 *260:33 0
54 *245:28 *1007:CLK 0
55 *245:42 *260:37 7.52149e-05
56 *246:14 *1029:A 0.00027273
*RES
1 *1022:X *260:10 43.605 
2 *260:10 *260:12 20 
3 *260:12 *260:14 3.5638 
4 *260:14 *1008:CLK 20 
5 *260:14 *260:25 6.8598 
6 *260:25 *260:33 46.1388 
7 *260:33 *260:37 20.8446 
8 *260:37 *1029:A 45.6444 
9 *260:37 *1007:CLK 46.1594 
10 *260:33 *1011:CLK 20.5356 
11 *260:25 *1010:CLK 20 
12 *260:12 *260:71 0.5356 
13 *260:71 *1006:CLK 20 
14 *260:71 *1005:CLK 24.6968 
*END

*D_NET *261 0.0103704
*CONN
*I *1030:A I *D sg13cmos5l_inv_1
*I *998:CLK I *D sg13cmos5l_dfrbpq_1
*I *1000:CLK I *D sg13cmos5l_dfrbpq_1
*I *1001:CLK I *D sg13cmos5l_dfrbpq_1
*I *1002:CLK I *D sg13cmos5l_dfrbpq_1
*I *1003:CLK I *D sg13cmos5l_dfrbpq_1
*I *1004:CLK I *D sg13cmos5l_dfrbpq_1
*I *1023:X O *D sg13cmos5l_buf_8
*CAP
1 *1030:A 0
2 *998:CLK 5.48213e-05
3 *1000:CLK 0
4 *1001:CLK 0
5 *1002:CLK 0
6 *1003:CLK 0
7 *1004:CLK 0
8 *1023:X 0.00015622
9 *261:72 0.00116555
10 *261:55 0.00171479
11 *261:44 0.000691707
12 *261:37 0.0003233
13 *261:20 0.000570728
14 *261:12 0.000734574
15 *261:10 0.00041182
16 *261:8 0.000530198
17 *998:CLK *310:14 0
18 *998:CLK *401:68 0
19 *261:8 *288:6 0.000145255
20 *261:10 *1002:RESET_B 0
21 *261:10 *1173:A 0
22 *261:10 *296:45 0.000208841
23 *261:12 *1002:RESET_B 0
24 *261:12 *296:45 0.000274677
25 *261:20 *1005:RESET_B 0
26 *261:20 *288:12 0.000926078
27 *261:20 *308:8 0
28 *261:37 *288:6 0
29 *261:44 *288:6 0
30 *261:55 *1031:A 0
31 *261:55 *288:6 0
32 *261:72 *992:RESET_B 0
33 *261:72 *997:RESET_B 0
34 *261:72 *998:RESET_B 0
35 *261:72 *1103:A 4.7803e-05
36 *261:72 *299:10 0.000446352
37 *261:72 *310:8 0
38 *261:72 *342:8 0
39 *261:72 *368:12 1.54556e-05
40 bn7 *261:72 0
41 *950:A2 *261:12 0
42 *992:D *261:72 0.000823222
43 *1023:A *261:8 8.03692e-05
44 *1023:A *261:10 0
45 *9:14 *261:55 0
46 *10:10 *261:10 1.54282e-05
47 *10:10 *261:37 0.000193477
48 *10:10 *261:44 0.000323735
49 *10:10 *261:55 0
50 *78:18 *261:20 0
51 *97:22 *261:72 0
52 *240:28 *261:20 0.000177225
53 *241:8 *261:20 0
54 *245:28 *261:20 0.000338733
55 *254:127 *261:10 0
*RES
1 *1023:X *261:8 22.06 
2 *261:8 *261:10 2.417 
3 *261:10 *261:12 1.8334 
4 *261:12 *261:20 47.313 
5 *261:20 *1004:CLK 20 
6 *261:12 *1003:CLK 20 
7 *261:10 *1002:CLK 20 
8 *261:8 *261:37 1.4008 
9 *261:37 *1001:CLK 20 
10 *261:37 *261:44 2.266 
11 *261:44 *1000:CLK 20 
12 *261:44 *261:55 24.3466 
13 *261:55 *998:CLK 40.5974 
14 *261:55 *261:72 32.2982 
15 *261:72 *1030:A 20 
*END

*D_NET *262 0.00882577
*CONN
*I *992:CLK I *D sg13cmos5l_dfrbpq_1
*I *997:CLK I *D sg13cmos5l_dfrbpq_1
*I *1031:A I *D sg13cmos5l_inv_1
*I *993:CLK I *D sg13cmos5l_dfrbpq_1
*I *994:CLK I *D sg13cmos5l_dfrbpq_1
*I *995:CLK I *D sg13cmos5l_dfrbpq_1
*I *996:CLK I *D sg13cmos5l_dfrbpq_1
*I *1024:X O *D sg13cmos5l_buf_8
*CAP
1 *992:CLK 0.000346096
2 *997:CLK 2.97101e-05
3 *1031:A 0.000381337
4 *993:CLK 0.000166864
5 *994:CLK 0.000418221
6 *995:CLK 0.000220758
7 *996:CLK 0
8 *1024:X 0.00059218
9 *262:63 0.000489593
10 *262:61 0.000424641
11 *262:59 0.000372349
12 *262:19 0.00101806
13 *262:15 0.000764285
14 *262:8 0.000438173
15 *992:CLK *1097:A 0
16 *992:CLK *299:10 0
17 *992:CLK *309:12 0
18 *993:CLK *993:RESET_B 0
19 *994:CLK *767:A 0
20 *994:CLK *370:39 4.77425e-05
21 *995:CLK *372:117 0
22 *1031:A *299:10 0
23 *262:8 *1096:A 0
24 *262:8 *399:52 0
25 *262:15 *993:RESET_B 0
26 *262:15 *1096:A 0
27 *262:15 *399:52 0.000112333
28 *262:19 *372:117 0
29 *262:59 *399:52 0
30 *262:59 *401:68 0
31 *262:63 *299:10 0
32 bn5 *262:59 0
33 *927:A2 *994:CLK 0
34 *929:A1 *995:CLK 0
35 *1084:A *1031:A 0
36 *1098:A *262:15 0.000207986
37 *9:14 *1031:A 0
38 *10:10 *1031:A 4.79124e-05
39 *40:18 *994:CLK 0
40 *69:10 *995:CLK 8.00842e-05
41 *69:16 *993:CLK 0.000241429
42 *69:16 *995:CLK 0.000606693
43 *69:16 *262:19 0.0010351
44 *99:12 *994:CLK 0.000207854
45 *101:12 *995:CLK 0.000340288
46 *103:14 *1031:A 0
47 *103:14 *262:59 0
48 *103:14 *262:63 0
49 *103:22 *262:15 0
50 *103:22 *262:59 0.000236081
51 *234:10 *262:19 0
52 *261:55 *1031:A 0
*RES
1 *1024:X *262:8 21.9673 
2 *262:8 *996:CLK 20 
3 *262:8 *262:15 2.266 
4 *262:15 *262:19 24.7998 
5 *262:19 *995:CLK 43.605 
6 *262:19 *994:CLK 43.914 
7 *262:15 *993:CLK 21.8334 
8 *1024:X *262:59 44.2848 
9 *262:59 *262:61 20 
10 *262:61 *262:63 0.9682 
11 *262:63 *1031:A 23.9964 
12 *262:63 *997:CLK 20.3502 
13 *262:61 *992:CLK 23.4814 
*END

*D_NET *263 0.0162598
*CONN
*I *1145:A I *D sg13cmos5l_dlygate4sd3_1
*I *920:C I *D sg13cmos5l_nand3b_1
*I *919:A I *D sg13cmos5l_or3_1
*I *1169:X O *D sg13cmos5l_buf_1
*CAP
1 *1145:A 0
2 *920:C 0
3 *919:A 0.000149655
4 *1169:X 0
5 *263:53 0.000467483
6 *263:38 0.000711112
7 *263:34 0.00126949
8 *263:26 0.00210046
9 *263:16 0.00243774
10 *263:6 0.00151279
11 *919:A *400:27 0
12 *263:16 *988:RESET_B 0.000128662
13 *263:16 *989:D 0
14 *263:16 *363:8 0
15 *263:16 *394:66 0.000266405
16 *263:16 *394:77 0.000585841
17 *263:16 *424:14 0
18 *263:16 *425:8 0.000370738
19 *263:26 *914:B1 0
20 *263:26 *386:83 7.65627e-05
21 *263:34 *321:34 0
22 *263:34 *384:73 0
23 *263:34 *392:84 0
24 *263:34 *411:35 0.000237672
25 *263:53 *1188:A 0.000175765
26 *263:53 *355:14 0.000289619
27 *263:53 *385:31 0.000176235
28 *263:53 *385:39 1.54008e-05
29 *869:A1 *263:34 0.000183601
30 *907:B1 *263:26 0.000767833
31 *919:B *919:A 1.54556e-05
32 *1026:A *263:16 0
33 *1151:A *263:16 0
34 *1151:A *263:26 0
35 *1167:A *263:16 0
36 *1167:A *263:26 0
37 *5:32 *263:38 0.000144768
38 *8:14 *263:53 0
39 *25:10 *919:A 0.000208222
40 *25:10 *263:38 0.000177109
41 *25:10 *263:53 0
42 *117:12 *263:34 0
43 *186:18 *263:34 0
44 *186:41 *263:34 0
45 *190:8 *263:34 0
46 *192:8 *263:34 0.000287672
47 *192:16 *263:34 0
48 *193:10 *263:34 0.000662849
49 *193:21 *263:34 0.00140954
50 *194:8 *263:34 0.000982887
51 *201:18 *263:26 0.000448202
52 *205:22 *263:26 0
53 *257:10 *263:16 0
54 *257:12 *263:16 0
55 *257:16 *263:16 0
56 *257:22 *263:16 0
57 *258:51 *263:53 0
*RES
1 *1169:X *263:6 40 
2 *263:6 *263:16 38.146 
3 *263:16 *263:26 49.9833 
4 *263:26 *263:34 35.3573 
5 *263:34 *263:38 21.1845 
6 *263:38 *919:A 21.4008 
7 *263:38 *263:53 44.4702 
8 *263:53 *920:C 20 
9 *263:16 *1145:A 20 
*END

*D_NET *264 0.00127886
*CONN
*I *1092:A I *D sg13cmos5l_dlygate4sd3_1
*I *998:Q O *D sg13cmos5l_dfrbpq_1
*CAP
1 *1092:A 0.000132652
2 *998:Q 0.000450936
3 *264:8 0.000583588
4 *1092:A *1096:A 0
5 *264:8 *938:D 0
6 *264:8 *310:14 0
7 *264:8 *383:105 0
8 *264:8 *401:68 0
9 *943:B *1092:A 0.000111683
10 *1024:A *1092:A 0
11 *234:10 *1092:A 0
*RES
1 *998:Q *264:8 43.811 
2 *264:8 *1092:A 41.4008 
*END

*D_NET *265 0.000984638
*CONN
*I *878:A I *D sg13cmos5l_nand2_1
*I *1062:X O *D sg13cmos5l_dlygate4sd3_1
*CAP
1 *878:A 0
2 *1062:X 0.000328047
3 *265:12 0.000328047
4 *265:12 *873:B1 0.000181995
5 *265:12 *379:51 0.000131027
6 *265:12 *387:79 0
7 *7:18 *265:12 0
8 *187:10 *265:12 1.55212e-05
*RES
1 *1062:X *265:12 43.2445 
2 *265:12 *878:A 40 
*END

*D_NET *266 0.000102266
*CONN
*I *983:D I *D sg13cmos5l_dfrbpq_1
*I *1063:X O *D sg13cmos5l_dlygate4sd3_1
*CAP
1 *983:D 5.11328e-05
2 *1063:X 5.11328e-05
3 *983:D *1147:A 0
*RES
1 *1063:X *983:D 40.5974 
*END

*D_NET *267 0.00161099
*CONN
*I *1191:A I *D sg13cmos5l_buf_1
*I *892:B1 I *D sg13cmos5l_o21ai_1
*I *1064:X O *D sg13cmos5l_dlygate4sd3_1
*CAP
1 *1191:A 0.000478273
2 *892:B1 0.000167988
3 *1064:X 0
4 *267:6 0.000646261
5 *892:B1 *986:RESET_B 0
6 *892:B1 *394:92 0
7 *1191:A *1064:A 0
8 *1191:A *1192:A 0
9 *1191:A *394:92 0
10 bn3 *1191:A 0.000287672
11 *892:A2 *892:B1 1.54008e-05
12 *30:10 *892:B1 0
13 *30:10 *1191:A 0
14 *97:14 *1191:A 0
15 *204:10 *892:B1 1.54008e-05
*RES
1 *1064:X *267:6 40 
2 *267:6 *892:B1 41.6274 
3 *267:6 *1191:A 45.4281 
*END

*D_NET *268 0.00115881
*CONN
*I *986:D I *D sg13cmos5l_dfrbpq_1
*I *1065:X O *D sg13cmos5l_dlygate4sd3_1
*CAP
1 *986:D 0.00034495
2 *1065:X 0.00034495
3 *986:D *386:96 0.000468907
4 *901:B *986:D 0
*RES
1 *1065:X *986:D 43.4814 
*END

*D_NET *269 0.00798896
*CONN
*I *800:C I *D sg13cmos5l_nor3_1
*I *806:B I *D sg13cmos5l_nor2_1
*I *787:B I *D sg13cmos5l_nand3b_1
*I *763:A I *D sg13cmos5l_inv_1
*I *789:A_N I *D sg13cmos5l_nand3b_1
*I *1066:X O *D sg13cmos5l_dlygate4sd3_1
*CAP
1 *800:C 0
2 *806:B 3.25791e-05
3 *787:B 0.000220024
4 *763:A 0.000648498
5 *789:A_N 7.08152e-05
6 *1066:X 0.00025225
7 *269:64 0.000292216
8 *269:42 0.00056095
9 *269:23 0.00121036
10 *269:12 0.000673853
11 *269:8 0.000893989
12 *763:A *775:A 0
13 *763:A *793:A 0
14 *763:A *866:B1 0
15 *763:A *305:36 0
16 *787:B *787:C 1.54556e-05
17 *787:B *787:A_N 0
18 *789:A_N *789:C 0.000127827
19 *269:8 *785:A 0
20 *269:12 *789:C 0
21 *269:23 *793:A 0
22 *269:23 *807:A 0.000453256
23 *269:23 *325:10 0.000128406
24 *269:42 *793:A 0
25 *269:42 *806:A 0
26 *269:42 *448:72 0.000143171
27 *269:64 *800:B 4.77425e-05
28 *269:64 *270:10 0
29 *792:A *787:B 0.000174858
30 *792:A *269:42 1.54556e-05
31 *792:B *269:42 0
32 *828:B1 *763:A 0
33 *847:B *269:8 4.77425e-05
34 *847:A *269:8 3.06669e-05
35 *862:B *763:A 8.02485e-05
36 *918:A *269:64 0
37 *108:18 *269:64 0
38 *121:47 *269:23 0
39 *121:57 *269:64 0.000235201
40 *123:16 *787:B 0
41 *137:34 *806:B 0
42 *137:34 *269:23 0.000288043
43 *137:34 *269:42 0.000402338
44 *137:42 *269:42 0
45 *138:64 *269:64 0.00023464
46 *148:14 *269:12 0
47 *148:20 *763:A 0
48 *148:20 *269:23 0
49 *148:82 *269:8 2.18151e-05
50 *148:82 *269:12 0.00026975
51 *148:97 *787:B 0
52 *170:14 *269:8 0.000175513
53 *181:8 *763:A 0
54 *248:10 *787:B 0
55 *256:27 *763:A 0
56 *256:45 *763:A 0
57 *256:86 *269:8 0
58 *256:86 *269:12 0.000241297
*RES
1 *1066:X *269:8 22.3999 
2 *269:8 *269:12 3.4814 
3 *269:12 *789:A_N 20.7519 
4 *269:12 *269:23 23.5638 
5 *269:23 *763:A 46.0049 
6 *269:23 *269:42 23.3475 
7 *269:42 *787:B 22.266 
8 *269:42 *806:B 20.3502 
9 *269:8 *269:64 43.3887 
10 *269:64 *800:C 20 
*END

*D_NET *270 0.00150211
*CONN
*I *863:B1 I *D sg13cmos5l_a21oi_1
*I *1067:X O *D sg13cmos5l_dlygate4sd3_1
*CAP
1 *863:B1 0.000106938
2 *1067:X 0.000258198
3 *270:10 0.000365137
4 *863:B1 *863:A1 0
5 *863:B1 *447:41 0
6 *270:10 *800:B 0
7 *1068:A *863:B1 0
8 *108:18 *270:10 0.000611284
9 *109:12 *863:B1 8.03692e-05
10 *125:26 *270:10 0
11 *133:58 *270:10 8.01789e-05
12 *138:64 *270:10 0
13 *269:64 *270:10 0
*RES
1 *1067:X *270:10 43.3578 
2 *270:10 *863:B1 40.9682 
*END

*D_NET *271 0.00110131
*CONN
*I *864:A2 I *D sg13cmos5l_o21ai_1
*I *1068:X O *D sg13cmos5l_dlygate4sd3_1
*CAP
1 *864:A2 0.000374356
2 *1068:X 0.000374356
3 *864:A2 *1136:A 4.77699e-05
4 *864:A2 *447:41 0
5 *864:B1 *864:A2 0.00014447
6 *864:A1 *864:A2 1.54556e-05
7 *55:10 *864:A2 0.000144899
8 *133:58 *864:A2 0
*RES
1 *1068:X *864:A2 43.8007 
*END

*D_NET *272 0.00106953
*CONN
*I *979:D I *D sg13cmos5l_dfrbpq_1
*I *1069:X O *D sg13cmos5l_dlygate4sd3_1
*CAP
1 *979:D 0
2 *1069:X 0.000292663
3 *272:10 0.000292663
4 *272:10 *305:26 0
5 *956:A2 *272:10 0
6 *243:22 *272:10 0.000242181
7 *244:28 *272:10 0.000242023
8 *254:87 *272:10 0
*RES
1 *1069:X *272:10 43.2033 
2 *272:10 *979:D 40 
*END

*D_NET *273 0.0068445
*CONN
*I *1173:A I *D sg13cmos5l_buf_1
*I *771:A I *D sg13cmos5l_inv_1
*I *1070:X O *D sg13cmos5l_dlygate4sd3_1
*CAP
1 *1173:A 0.000341508
2 *771:A 0
3 *1070:X 5.90669e-05
4 *273:35 0.000962633
5 *273:24 0.000159714
6 *273:16 0.000953179
7 *273:6 0.00147366
8 *1173:A *1002:RESET_B 0
9 *1173:A *399:31 0
10 *273:6 *380:60 0
11 *273:16 *941:B1 0.000144768
12 *273:16 *298:18 0
13 *273:16 *380:49 0.000129383
14 *273:24 *354:10 7.53765e-05
15 *273:24 *369:89 0
16 *273:35 *938:C 0.000344504
17 *273:35 *938:A 0
18 *273:35 *940:C 0
19 *273:35 *370:79 0.000131027
20 *941:A1 *273:16 0
21 *941:A2 *273:16 0
22 *1075:A *1173:A 0
23 *9:14 *273:35 0
24 *10:10 *1173:A 0
25 *76:10 *273:35 0.00055613
26 *77:8 *273:16 0.000127963
27 *80:10 *273:24 7.65627e-05
28 *104:8 *273:24 0.000144041
29 *104:16 *273:16 0
30 *219:30 *273:16 8.37856e-05
31 *227:43 *273:35 0
32 *242:10 *273:16 0.000608207
33 *243:10 *273:24 0.000241351
34 *245:12 *273:35 0.000231646
35 *261:10 *1173:A 0
*RES
1 *1070:X *273:6 20.5356 
2 *273:6 *273:16 48.1576 
3 *273:16 *273:24 41.9673 
4 *273:24 *771:A 20 
5 *273:6 *273:35 47.0246 
6 *273:35 *1173:A 23.1312 
*END

*D_NET *274 0.000786699
*CONN
*I *999:D I *D sg13cmos5l_dfrbpq_1
*I *1071:X O *D sg13cmos5l_dlygate4sd3_1
*CAP
1 *999:D 0
2 *1071:X 0.000152318
3 *274:10 0.000152318
4 *274:10 *370:51 0.000176235
5 *274:10 *383:39 0.000176235
6 *274:10 *399:10 0.000129595
7 *134:39 *274:10 0
*RES
1 *1071:X *274:10 41.7819 
2 *274:10 *999:D 40 
*END

*D_NET *275 0.000463282
*CONN
*I *1070:A I *D sg13cmos5l_dlygate4sd3_1
*I *999:Q O *D sg13cmos5l_dfrbpq_1
*CAP
1 *1070:A 0.000126839
2 *999:Q 0.000126839
3 *1070:A *372:73 0.000209605
4 *943:B *1070:A 0
*RES
1 *999:Q *1070:A 41.4008 
*END

*D_NET *276 0.00263277
*CONN
*I *1185:A I *D sg13cmos5l_buf_1
*I *783:A I *D sg13cmos5l_inv_1
*I *1072:X O *D sg13cmos5l_dlygate4sd3_1
*CAP
1 *1185:A 0
2 *783:A 0.000257368
3 *1072:X 0.00016616
4 *276:8 0.000423527
5 *783:A *780:A 0.00018128
6 *783:A *781:A 0
7 *783:A *1197:A 0
8 *276:8 *778:A 0
9 *276:8 *780:A 0.000212871
10 *276:8 *294:8 0.000500532
11 *960:A1 *783:A 0.00020945
12 *113:8 *783:A 0.00018128
13 *113:8 *276:8 0.000500302
*RES
1 *1072:X *276:8 43.3166 
2 *276:8 *783:A 42.8943 
3 *276:8 *1185:A 40 
*END

*D_NET *277 0.00110899
*CONN
*I *1011:D I *D sg13cmos5l_dfrbpq_1
*I *1073:X O *D sg13cmos5l_dlygate4sd3_1
*CAP
1 *1011:D 0
2 *1073:X 0.000178202
3 *277:10 0.000178202
4 *277:10 *1198:A 0
5 *277:10 *396:36 0.000177158
6 *87:12 *277:10 0.000287672
7 *112:10 *277:10 0.000287759
*RES
1 *1073:X *277:10 42.5235 
2 *277:10 *1011:D 40 
*END

*D_NET *278 0.0150617
*CONN
*I *1175:A I *D sg13cmos5l_buf_1
*I *773:A I *D sg13cmos5l_inv_1
*I *1074:X O *D sg13cmos5l_dlygate4sd3_1
*CAP
1 *1175:A 0
2 *773:A 0.000717272
3 *1074:X 0.000187522
4 *278:41 0.001499
5 *278:20 0.00230608
6 *278:16 0.00174444
7 *278:8 0.00184216
8 *773:A *948:B1 0.000499471
9 *773:A *293:10 0.000288088
10 *773:A *300:39 0
11 *773:A *305:26 0
12 *773:A *372:24 0.000234311
13 *278:16 *1074:A 0.000598582
14 *278:16 *1099:A 0
15 *278:16 *288:6 0
16 *278:16 *288:25 0.00111628
17 *278:20 *305:26 0
18 *278:20 *305:49 0
19 *278:41 *958:B1 0
20 *278:41 *1181:A 0
21 *278:41 *292:14 0.000675308
22 *278:41 *369:44 0.000598187
23 bn8 *278:8 0
24 *1086:A *278:16 0.000824774
25 *1090:A *278:41 0
26 *1143:A *773:A 0
27 *14:10 *278:41 8.00842e-05
28 *15:24 *278:41 0
29 *18:16 *278:41 0
30 *81:12 *773:A 0.000873809
31 *81:12 *278:20 0.000267946
32 *246:14 *773:A 0.000242045
33 *260:25 *278:41 0.000466302
*RES
1 *1074:X *278:8 41.8334 
2 *278:8 *278:16 37.4585 
3 *278:16 *278:20 21.339 
4 *278:20 *773:A 49.3833 
5 *278:20 *278:41 34.9968 
6 *278:41 *1175:A 20 
*END

*D_NET *279 0.000400316
*CONN
*I *1001:D I *D sg13cmos5l_dfrbpq_1
*I *1075:X O *D sg13cmos5l_dlygate4sd3_1
*CAP
1 *1001:D 0.000111524
2 *1075:X 0.000111524
3 *1001:D *354:36 0
4 *11:10 *1001:D 0.000177268
*RES
1 *1075:X *1001:D 41.1845 
*END

*D_NET *280 0.00308072
*CONN
*I *824:B_N I *D sg13cmos5l_nor2b_1
*I *826:A I *D sg13cmos5l_nand2_1
*I *810:B I *D sg13cmos5l_nor4_1
*I *825:A I *D sg13cmos5l_or2_1
*I *830:D I *D sg13cmos5l_and4_1
*I *1076:X O *D sg13cmos5l_dlygate4sd3_1
*CAP
1 *824:B_N 0.000221394
2 *826:A 0
3 *810:B 0
4 *825:A 0
5 *830:D 0.000188465
6 *1076:X 0.000150908
7 *280:16 0.000409262
8 *280:12 0.000371354
9 *280:10 0.000242847
10 *280:8 0.000464592
11 *824:B_N *282:31 0.000208025
12 *824:B_N *439:8 0
13 *830:D *323:30 1.54008e-05
14 *861:A2 *280:8 0
15 *137:52 *280:8 0.000130618
16 *138:23 *824:B_N 4.77425e-05
17 *138:23 *280:8 0.000266594
18 *138:23 *280:10 7.51285e-05
19 *141:8 *280:16 0
20 *141:16 *824:B_N 0
21 *141:16 *280:10 0
22 *141:16 *280:12 0
23 *149:12 *280:16 0
24 *150:12 *830:D 0.000272938
25 *150:23 *830:D 1.54556e-05
26 *150:31 *280:12 0
27 *150:31 *280:16 0
28 *256:45 *830:D 0
*RES
1 *1076:X *280:8 42.0806 
2 *280:8 *280:10 1.0918 
3 *280:10 *280:12 1.339 
4 *280:12 *280:16 21.8334 
5 *280:16 *830:D 21.8334 
6 *280:16 *825:A 20 
7 *280:12 *810:B 40 
8 *280:10 *826:A 40 
9 *280:8 *824:B_N 42.1836 
*END

*D_NET *281 0.00149546
*CONN
*I *811:B I *D sg13cmos5l_nor2_1
*I *1077:X O *D sg13cmos5l_dlygate4sd3_1
*CAP
1 *811:B 6.76308e-05
2 *1077:X 0.000405813
3 *281:10 0.000473444
4 *281:10 *305:26 0.000181694
5 *281:10 *448:35 7.68089e-05
6 *135:18 *811:B 0.000112716
7 *136:8 *281:10 0
8 *138:51 *811:B 0
9 *138:64 *811:B 0
10 *142:10 *811:B 4.78028e-05
11 *155:40 *281:10 0.000129547
12 *156:10 *281:10 0
*RES
1 *1077:X *281:10 43.6359 
2 *281:10 *811:B 40.7519 
*END

*D_NET *282 0.00580692
*CONN
*I *815:A2 I *D sg13cmos5l_o21ai_1
*I *812:C I *D sg13cmos5l_nor3_1
*I *866:B1 I *D sg13cmos5l_a21o_1
*I *1078:X O *D sg13cmos5l_dlygate4sd3_1
*CAP
1 *815:A2 0.00020237
2 *812:C 0.000322898
3 *866:B1 0.000354635
4 *1078:X 0
5 *282:33 0.000525268
6 *282:31 0.00131931
7 *282:6 0.00167395
8 *812:C *812:A 0
9 *812:C *283:10 0
10 *812:C *285:35 0
11 *815:A2 *283:10 0
12 *866:B1 *305:36 0
13 *282:31 *807:A 0.000165872
14 *282:31 *283:10 0
15 *282:31 *305:36 0
16 *282:31 *439:8 0
17 *282:31 *439:25 0
18 *763:A *866:B1 0
19 *815:B1 *815:A2 1.49483e-05
20 *815:A1 *815:A2 0
21 *815:A1 *282:31 0
22 *816:B1 *812:C 0
23 *816:B1 *815:A2 0
24 *816:B1 *282:31 0
25 *820:B *282:31 0
26 *824:A *282:31 8.00842e-05
27 *824:B_N *282:31 0.000208025
28 *827:B1 *866:B1 0
29 *827:A1 *866:B1 0
30 *828:B1 *282:31 0.000209071
31 *828:A1 *282:31 0.000192994
32 *862:B *282:31 0
33 *866:A1 *866:B1 4.79017e-05
34 *967:CLK *812:C 0
35 *136:40 *282:31 0
36 *136:57 *812:C 1.54008e-05
37 *139:10 *866:B1 0
38 *145:8 *812:C 0
39 *145:8 *815:A2 0
40 *148:30 *866:B1 8.03692e-05
41 *155:19 *282:31 0
42 *181:8 *866:B1 0.000393823
*RES
1 *1078:X *282:6 40 
2 *282:6 *866:B1 44.0994 
3 *282:6 *282:31 32.9471 
4 *282:31 *282:33 20 
5 *282:33 *812:C 43.4505 
6 *282:33 *815:A2 42.0909 
*END

*D_NET *283 0.00711658
*CONN
*I *814:A I *D sg13cmos5l_xor2_1
*I *830:A I *D sg13cmos5l_and4_1
*I *813:A1 I *D sg13cmos5l_a21oi_1
*I *821:A I *D sg13cmos5l_nand3_1
*I *817:A1 I *D sg13cmos5l_a21oi_1
*I *812:A I *D sg13cmos5l_nor3_1
*I *1079:X O *D sg13cmos5l_dlygate4sd3_1
*CAP
1 *814:A 0.000390117
2 *830:A 0.00022103
3 *813:A1 0
4 *821:A 0
5 *817:A1 2.97526e-05
6 *812:A 4.65637e-05
7 *1079:X 0.000430315
8 *283:53 0.000103251
9 *283:38 0.000532216
10 *283:34 0.00059212
11 *283:28 0.000679989
12 *283:26 0.000656169
13 *283:10 0.000476878
14 *814:A *968:D 0
15 *817:A1 *817:A2 1.54008e-05
16 *830:A *285:29 1.54008e-05
17 *830:A *285:35 0.000167087
18 *283:38 *323:10 0
19 *283:53 *817:A2 1.54008e-05
20 *283:53 *817:B1 0.00012816
21 *283:53 *821:C 7.51285e-05
22 *283:53 *285:35 3.23417e-05
23 *283:53 *323:10 4.77425e-05
24 *812:C *812:A 0
25 *812:C *283:10 0
26 *813:A2 *283:34 9.73703e-05
27 *813:A2 *283:38 1.54556e-05
28 *815:B1 *814:A 0
29 *815:A1 *283:10 0
30 *815:A2 *283:10 0
31 *816:B1 *812:A 8.0216e-05
32 *967:CLK *283:10 0
33 *43:8 *814:A 0.000319094
34 *43:8 *283:28 0.000849889
35 *43:8 *283:34 0.000287672
36 *44:12 *283:28 0
37 *135:50 *283:28 0
38 *136:40 *283:10 0
39 *143:10 *812:A 1.54008e-05
40 *146:12 *283:38 0
41 *150:12 *283:34 0.000112651
42 *150:12 *283:38 0.000501495
43 *152:8 *814:A 0
44 *152:8 *283:28 0
45 *256:45 *830:A 0.000182276
46 *282:31 *283:10 0
*RES
1 *1079:X *283:10 43.914 
2 *283:10 *812:A 40.5356 
3 *1079:X *283:26 40 
4 *283:26 *283:28 4.0582 
5 *283:28 *283:34 22.5853 
6 *283:34 *283:38 4.1303 
7 *283:38 *817:A1 20.3193 
8 *283:38 *283:53 41.1639 
9 *283:53 *821:A 20 
10 *283:34 *813:A1 20 
11 *283:28 *830:A 42.3175 
12 *283:26 *814:A 44.1921 
*END

*D_NET *284 0.000709162
*CONN
*I *967:D I *D sg13cmos5l_dfrbpq_1
*I *1080:X O *D sg13cmos5l_dlygate4sd3_1
*CAP
1 *967:D 0.000123445
2 *1080:X 0.000126271
3 *284:8 0.000249716
4 *967:D *967:RESET_B 0
5 *967:D *968:RESET_B 0.00020973
6 *284:8 *967:RESET_B 0
7 *152:8 *284:8 0
*RES
1 *1080:X *284:8 41.5862 
2 *284:8 *967:D 41.4008 
*END

*D_NET *285 0.00694486
*CONN
*I *758:A I *D sg13cmos5l_inv_1
*I *830:B I *D sg13cmos5l_and4_1
*I *821:B I *D sg13cmos5l_nand3_1
*I *817:A2 I *D sg13cmos5l_a21oi_1
*I *814:B I *D sg13cmos5l_xor2_1
*I *1081:X O *D sg13cmos5l_dlygate4sd3_1
*CAP
1 *758:A 4.28922e-05
2 *830:B 0
3 *821:B 2.36489e-05
4 *817:A2 0.000147321
5 *814:B 4.11431e-05
6 *1081:X 0.00045099
7 *285:35 0.000837713
8 *285:29 0.00120191
9 *285:12 0.000793944
10 *285:10 0.000711512
11 *817:A2 *323:10 1.54008e-05
12 *285:10 *440:27 0
13 *285:12 *440:27 0
14 *285:29 *439:25 0
15 *285:29 *440:27 0.000980241
16 *285:35 *323:6 0
17 *285:35 *323:10 0
18 *285:35 *323:30 0.000177321
19 *790:A *758:A 0
20 *812:C *285:35 0
21 *815:B1 *814:B 4.77866e-05
22 *817:A1 *817:A2 1.54008e-05
23 *829:A *285:10 0
24 *830:A *285:29 1.54008e-05
25 *830:A *285:35 0.000167087
26 *1082:A *758:A 0
27 *44:12 *285:10 0
28 *44:12 *285:12 0
29 *91:8 *285:12 0
30 *135:28 *285:29 0.000398084
31 *135:34 *285:29 0.000341119
32 *140:8 *285:29 0.000181192
33 *152:8 *285:10 0
34 *256:45 *285:35 0.000307002
35 *259:44 *285:10 0
36 *283:53 *817:A2 1.54008e-05
37 *283:53 *285:35 3.23417e-05
*RES
1 *1081:X *285:10 44.5629 
2 *285:10 *285:12 1.8334 
3 *285:12 *814:B 40.3508 
4 *285:12 *285:29 27.3542 
5 *285:29 *285:35 6.6126 
6 *285:35 *817:A2 21.9158 
7 *285:35 *821:B 20.3502 
8 *285:29 *830:B 20 
9 *285:10 *758:A 40.5356 
*END

*D_NET *286 0.00182503
*CONN
*I *1083:A I *D sg13cmos5l_dlygate4sd3_1
*I *1000:Q O *D sg13cmos5l_dfrbpq_1
*CAP
1 *1083:A 0.000839948
2 *1000:Q 0.000839948
3 *923:A1 *1083:A 0
4 *992:D *1083:A 0
5 *227:43 *1083:A 0.000145135
*RES
1 *1000:Q *1083:A 48.1576 
*END

*D_NET *287 0.000304195
*CONN
*I *968:D I *D sg13cmos5l_dfrbpq_1
*I *1082:X O *D sg13cmos5l_dlygate4sd3_1
*CAP
1 *968:D 0.000152097
2 *1082:X 0.000152097
3 *968:D *968:RESET_B 0
4 *790:A *968:D 0
5 *814:A *968:D 0
6 *1080:A *968:D 0
*RES
1 *1082:X *968:D 41.6171 
*END

*D_NET *288 0.0118152
*CONN
*I *772:A I *D sg13cmos5l_inv_1
*I *1174:A I *D sg13cmos5l_buf_1
*I *1083:X O *D sg13cmos5l_dlygate4sd3_1
*CAP
1 *772:A 0
2 *1174:A 0
3 *1083:X 0.00168244
4 *288:25 0.00138332
5 *288:12 0.000389131
6 *288:6 0.00345489
7 *288:6 *1074:A 0
8 *288:6 *310:8 0.000726506
9 *288:12 *1005:RESET_B 0
10 *288:12 *300:8 0
11 *288:25 *958:B1 0
12 *288:25 *1085:A 0
13 *288:25 *1087:A 0
14 *288:25 *369:36 0
15 *923:A1 *288:6 0
16 *992:D *288:6 0
17 *1023:A *288:6 0
18 *9:14 *288:6 0
19 *14:10 *288:25 0.00199127
20 *18:16 *288:25 0
21 *19:16 *288:25 0
22 *97:22 *288:6 0
23 *254:127 *288:6 0
24 *254:127 *288:25 0
25 *261:8 *288:6 0.000145255
26 *261:20 *288:12 0.000926078
27 *261:37 *288:6 0
28 *261:44 *288:6 0
29 *261:55 *288:6 0
30 *278:16 *288:6 0
31 *278:16 *288:25 0.00111628
*RES
1 *1083:X *288:6 35.244 
2 *288:6 *288:12 45.5414 
3 *288:12 *1174:A 20 
4 *288:6 *288:25 35.9135 
5 *288:25 *772:A 40 
*END

*D_NET *289 0.000449094
*CONN
*I *1000:D I *D sg13cmos5l_dfrbpq_1
*I *1084:X O *D sg13cmos5l_dlygate4sd3_1
*CAP
1 *1000:D 0.00013585
2 *1084:X 0.00013585
3 *1000:D *383:105 0
4 *103:14 *1000:D 0.000177394
*RES
1 *1084:X *1000:D 41.5347 
*END

*D_NET *290 0.00991003
*CONN
*I *1179:A I *D sg13cmos5l_buf_1
*I *777:A I *D sg13cmos5l_inv_1
*I *1085:X O *D sg13cmos5l_dlygate4sd3_1
*CAP
1 *1179:A 0
2 *777:A 0
3 *1085:X 0.000473474
4 *290:29 0.00151046
5 *290:16 0.00156073
6 *290:8 0.00354467
7 *290:8 *348:10 0
8 *290:8 *369:36 0
9 *290:16 *300:39 0
10 *290:16 *305:26 0
11 *290:16 *396:38 0
12 *290:16 *396:50 0
13 *290:16 *396:68 0
14 *290:16 *442:8 0.000128334
15 *290:29 *954:B1 0
16 *290:29 *1008:D 4.77425e-05
17 *290:29 *1010:D 0.00027267
18 *290:29 *1072:A 0
19 *290:29 *1180:A 0.000371477
20 *290:29 *318:12 0
21 bp4 *290:8 0
22 *17:12 *290:29 0
23 *21:10 *290:29 0
24 *46:10 *290:16 0
25 *89:12 *290:16 0.000824167
26 *103:14 *290:29 0.000888455
27 *105:16 *290:29 0
28 *110:10 *290:16 0.000287846
29 *111:18 *290:8 0
30 *111:18 *290:16 0
31 *135:18 *290:16 0
32 *156:10 *290:16 0
*RES
1 *1085:X *290:8 44.3054 
2 *290:8 *290:16 35.0792 
3 *290:16 *777:A 20 
4 *290:8 *290:29 35.2955 
5 *290:29 *1179:A 20 
*END

*D_NET *291 0.00113842
*CONN
*I *1005:D I *D sg13cmos5l_dfrbpq_1
*I *1086:X O *D sg13cmos5l_dlygate4sd3_1
*CAP
1 *1005:D 0
2 *1086:X 0.000513302
3 *291:10 0.000513302
4 *291:10 *1005:RESET_B 0
5 *291:10 *296:45 0.00011182
6 *291:10 *300:8 0
7 bp2 *291:10 0
8 *107:8 *291:10 0
9 *254:127 *291:10 0
*RES
1 *1086:X *291:10 45.2427 
2 *291:10 *1005:D 40 
*END

*D_NET *292 0.00703947
*CONN
*I *1180:A I *D sg13cmos5l_buf_1
*I *778:A I *D sg13cmos5l_inv_1
*I *1087:X O *D sg13cmos5l_dlygate4sd3_1
*CAP
1 *1180:A 0.000201402
2 *778:A 0.000802388
3 *1087:X 0.000762108
4 *292:14 0.0017659
5 *778:A *1056:A 0
6 *778:A *294:8 0
7 *778:A *312:14 0
8 *778:A *340:10 0.000288087
9 *778:A *396:103 0
10 *778:A *398:46 0
11 *1180:A *318:12 0.000339135
12 *292:14 *958:B1 0.000143577
13 *292:14 *294:8 0
14 *292:14 *305:55 0
15 bp8 *778:A 0.000449139
16 bp8 *292:14 0.000765799
17 *956:A1 *778:A 0
18 *1106:A *292:14 8.00842e-05
19 *14:10 *292:14 0
20 *112:10 *778:A 0
21 *113:8 *778:A 0
22 *114:10 *778:A 0.000395067
23 *115:12 *778:A 0
24 *243:30 *778:A 0
25 *276:8 *778:A 0
26 *278:41 *292:14 0.000675308
27 *290:29 *1180:A 0.000371477
*RES
1 *1087:X *292:14 49.1258 
2 *292:14 *778:A 49.167 
3 *292:14 *1180:A 42.4823 
*END

*D_NET *293 0.000984413
*CONN
*I *1006:D I *D sg13cmos5l_dfrbpq_1
*I *1088:X O *D sg13cmos5l_dlygate4sd3_1
*CAP
1 *1006:D 3.78077e-05
2 *1088:X 0.00020036
3 *293:10 0.000238168
4 *293:10 *305:26 7.51285e-05
5 *773:A *293:10 0.000288088
6 *105:16 *293:10 0
7 *240:28 *293:10 0.000144861
*RES
1 *1088:X *293:10 42.3072 
2 *293:10 *1006:D 40.3193 
*END

*D_NET *294 0.00431162
*CONN
*I *1182:A I *D sg13cmos5l_buf_1
*I *780:A I *D sg13cmos5l_inv_1
*I *1089:X O *D sg13cmos5l_dlygate4sd3_1
*CAP
1 *1182:A 2.60565e-05
2 *780:A 0.000331475
3 *1089:X 0.000456937
4 *294:8 0.000814469
5 *780:A *312:14 0
6 *780:A *316:21 0.000659398
7 *1182:A *1198:A 4.77425e-05
8 *294:8 *305:55 0.000234813
9 *294:8 *316:21 0.000798308
10 bp9 *294:8 0
11 *778:A *294:8 0
12 *783:A *780:A 0.00018128
13 *16:10 *294:8 0
14 *18:10 *294:8 0
15 *19:10 *1182:A 4.77425e-05
16 *113:8 *780:A 0
17 *243:30 *780:A 0
18 *276:8 *780:A 0.000212871
19 *276:8 *294:8 0.000500532
20 *292:14 *294:8 0
*RES
1 *1089:X *294:8 46.7774 
2 *294:8 *780:A 44.3466 
3 *294:8 *1182:A 40.3193 
*END

*D_NET *295 0.00110186
*CONN
*I *1008:D I *D sg13cmos5l_dfrbpq_1
*I *1090:X O *D sg13cmos5l_dlygate4sd3_1
*CAP
1 *1008:D 2.80119e-05
2 *1090:X 0.000222219
3 *295:10 0.000250231
4 *1008:D *954:B1 1.54008e-05
5 *295:10 *1008:RESET_B 0
6 *295:10 *348:10 0
7 *295:10 *369:36 0.000394151
8 *17:12 *295:10 0.000144102
9 *105:16 *1008:D 0
10 *290:29 *1008:D 4.77425e-05
*RES
1 *1090:X *295:10 42.8016 
2 *295:10 *1008:D 40.3193 
*END

*D_NET *296 0.0090798
*CONN
*I *774:A I *D sg13cmos5l_inv_1
*I *1176:A I *D sg13cmos5l_buf_1
*I *1091:X O *D sg13cmos5l_dlygate4sd3_1
*CAP
1 *774:A 0
2 *1176:A 0.000416178
3 *1091:X 0
4 *296:45 0.00161337
5 *296:18 0.000879205
6 *296:6 0.00207639
7 *1176:A *401:51 0.000181276
8 *296:18 *957:C 0
9 *296:18 *298:18 0.000115282
10 *296:18 *375:86 0.000236472
11 *296:18 *376:8 0.000292059
12 *296:18 *381:24 0
13 *296:45 *370:113 0
14 *296:45 *381:24 0
15 bn9 *296:45 0
16 *942:A1 *1176:A 2.21849e-05
17 *950:A2 *296:45 0
18 *1005:CLK *296:45 0.000339393
19 *13:12 *1176:A 0
20 *13:22 *296:18 0.000453639
21 *13:22 *296:45 0
22 *15:24 *296:45 0
23 *57:8 *1176:A 0
24 *77:8 *296:45 0
25 *88:8 *1176:A 0
26 *134:10 *1176:A 0.000662769
27 *206:16 *1176:A 0.00119624
28 *254:127 *296:45 0
29 *261:10 *296:45 0.000208841
30 *261:12 *296:45 0.000274677
31 *291:10 *296:45 0.00011182
*RES
1 *1091:X *296:6 40 
2 *296:6 *296:18 45.7268 
3 *296:18 *1176:A 46.5302 
4 *296:6 *296:45 36.5521 
5 *296:45 *774:A 20 
*END

*D_NET *297 0.0021473
*CONN
*I *1074:A I *D sg13cmos5l_dlygate4sd3_1
*I *1001:Q O *D sg13cmos5l_dfrbpq_1
*CAP
1 *1074:A 0.00047505
2 *1001:Q 0.00047505
3 *1074:A *370:113 0.00059862
4 *278:16 *1074:A 0.000598582
5 *288:6 *1074:A 0
*RES
1 *1001:Q *1074:A 45.871 
*END

*D_NET *298 0.0153103
*CONN
*I *1172:A I *D sg13cmos5l_buf_1
*I *770:A I *D sg13cmos5l_inv_1
*I *1092:X O *D sg13cmos5l_dlygate4sd3_1
*CAP
1 *1172:A 0
2 *770:A 0
3 *1092:X 0.000143565
4 *298:37 0.000687195
5 *298:24 0.0016726
6 *298:18 0.00373998
7 *298:14 0.00325066
8 *298:10 0.000639659
9 *298:10 *934:A 0.000111027
10 *298:10 *1133:A 0.000111027
11 *298:10 *355:32 0.000287572
12 *298:10 *401:68 0.000342647
13 *298:18 *317:14 0
14 *298:24 *1089:A 0
15 *298:24 *366:8 0
16 *298:24 *396:16 0.000819935
17 *298:37 *307:32 0.000237203
18 *298:37 *375:8 0
19 *298:37 *375:36 0
20 bp7 *298:24 0
21 bp8 *298:24 0
22 *8:8 *298:37 0.000554174
23 *18:16 *298:24 0.000176383
24 *23:12 *298:37 7.52158e-05
25 *75:8 *298:37 0.000502349
26 *98:14 *298:18 0
27 *104:16 *298:18 0
28 *104:24 *298:37 0.000610319
29 *115:12 *298:24 0
30 *198:31 *298:37 0
31 *206:24 *298:14 0.000268823
32 *206:24 *298:18 0.000489824
33 *210:24 *298:18 0
34 *210:37 *298:10 0
35 *210:37 *298:14 0
36 *223:35 *298:37 0
37 *226:10 *298:37 0.000289551
38 *227:33 *298:18 0.000185295
39 *242:10 *298:18 0
40 *245:42 *298:24 0
41 *254:79 *298:14 0
42 *254:79 *298:18 0
43 *254:87 *298:18 0
44 *254:89 *298:18 0
45 *273:16 *298:18 0
46 *296:18 *298:18 0.000115282
*RES
1 *1092:X *298:10 42.3381 
2 *298:10 *298:14 25.2942 
3 *298:14 *298:18 43.896 
4 *298:18 *298:24 34.1419 
5 *298:24 *770:A 20 
6 *298:14 *298:37 49.5378 
7 *298:37 *1172:A 20 
*END

*D_NET *299 0.00186466
*CONN
*I *998:D I *D sg13cmos5l_dfrbpq_1
*I *1093:X O *D sg13cmos5l_dlygate4sd3_1
*CAP
1 *998:D 0
2 *1093:X 0.000547973
3 *299:10 0.000547973
4 *299:10 *309:12 0.00024217
5 *299:10 *310:8 0
6 *992:CLK *299:10 0
7 *1031:A *299:10 0
8 *9:14 *299:10 8.01933e-05
9 *261:72 *299:10 0.000446352
10 *262:63 *299:10 0
*RES
1 *1093:X *299:10 45.7062 
2 *299:10 *998:D 40 
*END

*D_NET *300 0.00999915
*CONN
*I *776:A I *D sg13cmos5l_inv_1
*I *1178:A I *D sg13cmos5l_buf_1
*I *1094:X O *D sg13cmos5l_dlygate4sd3_1
*CAP
1 *776:A 2.93806e-05
2 *1178:A 0
3 *1094:X 0.000130414
4 *300:39 0.000999897
5 *300:30 0.000370573
6 *300:24 0.00125135
7 *300:16 0.00239273
8 *300:8 0.000671849
9 *300:16 *1003:RESET_B 0
10 *300:16 *1005:RESET_B 0
11 *300:24 *396:77 0
12 *300:30 *1072:A 0
13 *300:30 *316:6 0
14 *300:39 *948:B1 0.000479035
15 *300:39 *305:26 0
16 *300:39 *372:24 0.000662166
17 bp2 *300:8 0
18 *773:A *300:39 0
19 *829:A *776:A 0
20 *950:A2 *300:16 0.000533371
21 *979:CLK *776:A 0
22 *12:12 *300:24 0
23 *15:24 *300:30 0.000371075
24 *17:12 *300:24 0
25 *81:12 *300:39 0.000500214
26 *85:10 *300:39 0.00097974
27 *98:10 *300:39 0
28 *111:18 *300:16 0.000241946
29 *111:18 *300:24 0.000177032
30 *111:18 *300:39 0
31 *260:10 *300:16 8.02102e-05
32 *260:10 *300:39 0.00012816
33 *288:12 *300:8 0
34 *290:16 *300:39 0
35 *291:10 *300:8 0
*RES
1 *1094:X *300:8 41.339 
2 *300:8 *300:16 25.9637 
3 *300:16 *300:24 48.6417 
4 *300:24 *300:30 43.3475 
5 *300:30 *1178:A 20 
6 *300:16 *300:39 33.699 
7 *300:39 *776:A 40.3193 
*END

*D_NET *301 0.000398715
*CONN
*I *1004:D I *D sg13cmos5l_dfrbpq_1
*I *1095:X O *D sg13cmos5l_dlygate4sd3_1
*CAP
1 *1004:D 0.000110729
2 *1095:X 0.000110729
3 *106:20 *1004:D 0
4 *243:10 *1004:D 0.000177257
*RES
1 *1095:X *1004:D 41.1845 
*END

*D_NET *302 0.00916072
*CONN
*I *1200:A I *D sg13cmos5l_buf_1
*I *764:A I *D sg13cmos5l_inv_1
*I *1096:X O *D sg13cmos5l_dlygate4sd3_1
*CAP
1 *1200:A 2.85793e-05
2 *764:A 0.000193802
3 *1096:X 0.000146116
4 *302:28 0.000752975
5 *302:14 0.00224408
6 *302:8 0.00180244
7 *764:A *392:84 0
8 *302:14 *799:A 8.00842e-05
9 *302:14 *868:A1 0
10 *302:14 *1033:A 0
11 *302:14 *1059:A 0
12 *302:14 *1201:A 0
13 *302:14 *310:14 7.61542e-05
14 *302:14 *355:14 0
15 *302:14 *372:75 0
16 *302:14 *399:10 0
17 *302:14 *399:21 0
18 *302:14 *400:33 0
19 *302:14 *412:8 0.000340463
20 *302:28 *885:B 0
21 *302:28 *307:32 0.000450816
22 *302:28 *378:22 0.000182268
23 *302:28 *388:57 0.000770266
24 *302:28 *438:65 0
25 *885:C *302:28 0.00066244
26 *904:C *302:28 7.6403e-05
27 *943:B *302:8 0
28 *999:CLK *302:8 0
29 *4:8 *302:14 0
30 *26:10 *302:14 0.000342905
31 *90:18 *302:14 0
32 *94:20 *764:A 0.0002736
33 *171:8 *302:28 0
34 *178:8 *302:14 0.000608383
35 *198:31 *302:28 0.000128952
36 *213:24 *302:14 0
*RES
1 *1096:X *302:8 41.1845 
2 *302:8 *302:14 35.4421 
3 *302:14 *302:28 48.7653 
4 *302:28 *764:A 21.8334 
5 *302:14 *1200:A 20.3502 
*END

*D_NET *303 0.0137022
*CONN
*I *768:A I *D sg13cmos5l_inv_1
*I *1204:A I *D sg13cmos5l_buf_1
*I *1097:X O *D sg13cmos5l_dlygate4sd3_1
*CAP
1 *768:A 0
2 *1204:A 0
3 *1097:X 2.47826e-05
4 *303:45 0.000722288
5 *303:32 5.54118e-05
6 *303:26 0.000765522
7 *303:14 0.00433287
8 *303:8 0.00292526
9 *303:14 *1192:A 0
10 *303:14 *314:10 0
11 *303:14 *368:12 0
12 *303:14 *379:36 0
13 *303:26 *321:24 0.000241667
14 *303:26 *379:36 0
15 *303:26 *387:57 0
16 *303:32 *384:71 0
17 *303:45 *419:25 0.000822524
18 bn3 *303:14 0
19 *901:B *303:45 4.78359e-05
20 *1148:A *303:26 0
21 *1153:A *303:45 0
22 *6:14 *303:14 0
23 *6:14 *303:26 0.000435037
24 *7:18 *303:32 0
25 *30:10 *303:14 0
26 *40:12 *303:26 0
27 *62:10 *303:45 0.000234726
28 *99:12 *303:14 0.00296464
29 *101:12 *303:45 0
30 *129:25 *303:26 0
31 *193:10 *303:32 0
32 *198:16 *303:26 0
33 *202:39 *303:26 0.000129595
34 *254:167 *303:45 0
*RES
1 *1097:X *303:8 40.3193 
2 *303:8 *303:14 47.6452 
3 *303:14 *303:26 48.0752 
4 *303:26 *303:32 40.5356 
5 *303:32 *1204:A 20 
6 *303:14 *303:45 47.5911 
7 *303:45 *768:A 20 
*END

*D_NET *304 0.00105351
*CONN
*I *996:D I *D sg13cmos5l_dfrbpq_1
*I *1098:X O *D sg13cmos5l_dlygate4sd3_1
*CAP
1 *996:D 0
2 *1098:X 0.000196401
3 *304:10 0.000196401
4 *304:10 *993:RESET_B 0.000110829
5 *304:10 *996:RESET_B 7.97665e-05
6 *304:10 *321:14 0.000182023
7 *72:8 *304:10 0.000288087
8 *254:145 *304:10 0
*RES
1 *1098:X *304:10 42.5235 
2 *304:10 *996:D 40 
*END

*D_NET *305 0.0147111
*CONN
*I *1177:A I *D sg13cmos5l_buf_1
*I *775:A I *D sg13cmos5l_inv_1
*I *1099:X O *D sg13cmos5l_dlygate4sd3_1
*CAP
1 *1177:A 0
2 *775:A 0.000436193
3 *1099:X 4.02625e-05
4 *305:55 0.00028953
5 *305:49 0.00161581
6 *305:36 0.000957388
7 *305:26 0.00251809
8 *305:8 0.00336344
9 *775:A *793:A 0
10 *775:A *448:72 0
11 *305:26 *369:44 0.000181438
12 *305:26 *372:24 0
13 *305:26 *397:41 0.000237259
14 *305:26 *408:10 0
15 *305:26 *409:10 0
16 *305:36 *793:A 0.000396262
17 *305:49 *1085:A 0.000501589
18 *305:49 *1087:A 0
19 *305:49 *1089:A 0.0010828
20 bp3 *305:49 0
21 bp8 *305:55 0
22 bp9 *305:55 0
23 *763:A *775:A 0
24 *763:A *305:36 0
25 *773:A *305:26 0
26 *862:A *775:A 0
27 *862:B *775:A 1.54008e-05
28 *865:B1 *775:A 0
29 *866:A2 *775:A 0
30 *866:B1 *305:36 0
31 *956:A2 *305:26 0.000182713
32 *966:A *305:26 0.000766152
33 *14:10 *305:8 0
34 *16:10 *305:55 0
35 *18:10 *305:55 0
36 *85:10 *305:26 0
37 *108:8 *775:A 0.000111946
38 *121:8 *305:36 0.000343525
39 *142:10 *305:36 0.000717493
40 *155:40 *305:26 0.000462168
41 *155:40 *305:36 0
42 *156:10 *305:26 0
43 *254:87 *305:26 0
44 *254:107 *305:26 0
45 *254:127 *305:26 0
46 *256:27 *775:A 0
47 *272:10 *305:26 0
48 *278:20 *305:26 0
49 *278:20 *305:49 0
50 *281:10 *305:26 0.000181694
51 *282:31 *305:36 0
52 *290:16 *305:26 0
53 *292:14 *305:55 0
54 *293:10 *305:26 7.51285e-05
55 *294:8 *305:55 0.000234813
56 *300:39 *305:26 0
*RES
1 *1099:X *305:8 40.3193 
2 *305:8 *305:26 42.145 
3 *305:26 *305:36 46.7053 
4 *305:36 *775:A 23.9964 
5 *305:8 *305:49 35.4088 
6 *305:49 *305:55 43.3166 
7 *305:55 *1177:A 20 
*END

*D_NET *306 0.00044687
*CONN
*I *1003:D I *D sg13cmos5l_dfrbpq_1
*I *1100:X O *D sg13cmos5l_dlygate4sd3_1
*CAP
1 *1003:D 0.000199722
2 *1100:X 0.000199722
3 *1003:D *354:36 0
4 *1002:D *1003:D 4.74263e-05
5 *11:10 *1003:D 0
6 *105:16 *1003:D 0
*RES
1 *1100:X *1003:D 41.8849 
*END

*D_NET *307 0.00886858
*CONN
*I *1205:A I *D sg13cmos5l_buf_1
*I *769:A I *D sg13cmos5l_inv_1
*I *1101:X O *D sg13cmos5l_dlygate4sd3_1
*CAP
1 *1205:A 0
2 *769:A 0
3 *1101:X 6.91891e-05
4 *307:32 0.000845612
5 *307:14 0.00163746
6 *307:8 0.000861043
7 *307:8 *344:8 0.000112579
8 *307:8 *399:29 0
9 *307:14 *1187:A 0.00167561
10 *307:14 *344:16 0.00273851
11 *307:14 *385:31 0
12 *307:14 *399:21 0
13 *307:32 *378:22 0
14 *867:B *307:32 0
15 *3:10 *307:32 0.00012938
16 *90:18 *307:14 0
17 *102:12 *307:32 0.000111175
18 *130:14 *307:32 0
19 *171:8 *307:32 0
20 *198:31 *307:32 0
21 *213:24 *307:14 0
22 *298:37 *307:32 0.000237203
23 *302:28 *307:32 0.000450816
*RES
1 *1101:X *307:8 40.7519 
2 *307:8 *307:14 33.9256 
3 *307:14 *307:32 49.7129 
4 *307:32 *769:A 20 
5 *307:14 *1205:A 20 
*END

*D_NET *308 0.00281208
*CONN
*I *1091:A I *D sg13cmos5l_dlygate4sd3_1
*I *1002:Q O *D sg13cmos5l_dfrbpq_1
*CAP
1 *1091:A 0.000167626
2 *1002:Q 0.000440766
3 *308:8 0.000608393
4 *1091:A *354:36 0.000135843
5 *11:10 *1091:A 0
6 *13:22 *308:8 0.00145945
7 *241:8 *308:8 0
8 *261:20 *308:8 0
*RES
1 *1002:Q *308:8 46.7774 
2 *308:8 *1091:A 41.6171 
*END

*D_NET *309 0.00253812
*CONN
*I *997:D I *D sg13cmos5l_dfrbpq_1
*I *1102:X O *D sg13cmos5l_dlygate4sd3_1
*CAP
1 *997:D 0
2 *1102:X 0.000736336
3 *309:12 0.000736336
4 *309:12 *1097:A 0
5 *309:12 *310:8 0.000823276
6 *992:CLK *309:12 0
7 *299:10 *309:12 0.00024217
*RES
1 *1102:X *309:12 48.1885 
2 *309:12 *997:D 40 
*END

*D_NET *310 0.0147649
*CONN
*I *1201:A I *D sg13cmos5l_buf_1
*I *765:A I *D sg13cmos5l_inv_1
*I *1103:X O *D sg13cmos5l_dlygate4sd3_1
*CAP
1 *1201:A 4.79409e-05
2 *765:A 0
3 *1103:X 0.000782449
4 *310:45 0.00144878
5 *310:20 0.00179428
6 *310:14 0.00427919
7 *310:8 0.00186652
8 *310:14 *372:75 0
9 *310:14 *383:105 0
10 *310:14 *399:21 0
11 *310:14 *401:68 0
12 *310:20 *396:50 0.00018365
13 *310:45 *868:A1 7.65602e-05
14 *310:45 *388:57 7.51285e-05
15 *869:A2 *1201:A 5.25612e-06
16 *998:CLK *310:14 0
17 *4:8 *310:45 1.54008e-05
18 *9:14 *310:8 0.000338846
19 *9:14 *310:14 0
20 *89:12 *310:20 0.000129186
21 *97:22 *310:8 0
22 *107:14 *310:20 0
23 *202:54 *310:14 0
24 *202:54 *310:20 0
25 *210:37 *310:14 0
26 *219:16 *310:45 0
27 *238:16 *310:20 8.09323e-05
28 *242:10 *310:20 0.00201485
29 *261:72 *310:8 0
30 *264:8 *310:14 0
31 *288:6 *310:8 0.000726506
32 *299:10 *310:8 0
33 *302:14 *1201:A 0
34 *302:14 *310:14 7.61542e-05
35 *309:12 *310:8 0.000823276
*RES
1 *1103:X *310:8 48.755 
2 *310:8 *310:14 31.1343 
3 *310:14 *310:20 38.1104 
4 *310:20 *765:A 40 
5 *310:14 *310:45 49.6937 
6 *310:45 *1201:A 20.6026 
*END

*D_NET *311 0.00122305
*CONN
*I *993:D I *D sg13cmos5l_dfrbpq_1
*I *1104:X O *D sg13cmos5l_dlygate4sd3_1
*CAP
1 *993:D 0
2 *1104:X 0.000215791
3 *311:10 0.000215791
4 *311:10 *342:12 0.000395896
5 *69:16 *311:10 0
6 *73:12 *311:10 0.000395568
*RES
1 *1104:X *311:10 43.0179 
2 *311:10 *993:D 40 
*END

*D_NET *312 0.00425475
*CONN
*I *1184:A I *D sg13cmos5l_buf_1
*I *782:A I *D sg13cmos5l_inv_1
*I *1105:X O *D sg13cmos5l_dlygate4sd3_1
*CAP
1 *1184:A 3.41445e-05
2 *782:A 0
3 *1105:X 0.000340714
4 *312:14 0.000956596
5 *312:8 0.00133145
6 *312:14 *781:A 0
7 bp9 *312:8 0.00130284
8 bp9 *312:14 0.000289002
9 comp_clk *312:8 0
10 comp_clk *312:14 0
11 *778:A *312:14 0
12 *780:A *312:14 0
13 *112:10 *312:14 0
14 *243:22 *312:14 0
15 *243:30 *312:14 0
*RES
1 *1105:X *312:8 46.0358 
2 *312:8 *312:14 30.5266 
3 *312:14 *782:A 20 
4 *312:8 *1184:A 40.3193 
*END

*D_NET *313 0.00217494
*CONN
*I *1010:D I *D sg13cmos5l_dfrbpq_1
*I *1106:X O *D sg13cmos5l_dlygate4sd3_1
*CAP
1 *1010:D 0.000154377
2 *1106:X 0.000106994
3 *313:8 0.000261371
4 *1010:D *954:B1 0.000273004
5 bp7 *313:8 0.000553565
6 *245:42 *313:8 0.000552963
7 *290:29 *1010:D 0.00027267
*RES
1 *1106:X *313:8 42.575 
2 *313:8 *1010:D 41.8334 
*END

*D_NET *314 0.0110527
*CONN
*I *766:A I *D sg13cmos5l_inv_1
*I *1202:A I *D sg13cmos5l_buf_1
*I *1107:X O *D sg13cmos5l_dlygate4sd3_1
*CAP
1 *766:A 2.83868e-05
2 *1202:A 0.000391453
3 *1107:X 0
4 *314:24 0.00178931
5 *314:10 0.00300654
6 *314:6 0.0015803
7 *766:A *1192:A 0
8 *1202:A *378:22 8.00842e-05
9 *314:10 *368:12 0
10 *314:10 *393:8 0
11 *314:24 *872:A 0
12 *314:24 *880:A 0
13 *314:24 *1192:A 0
14 *314:24 *379:6 0.000207854
15 *314:24 *379:15 0.000160801
16 *314:24 *379:36 0
17 *314:24 *422:10 0
18 bn2 *314:10 0
19 *869:A1 *1202:A 0.000176781
20 *869:A2 *1202:A 0
21 *872:B *314:24 4.77425e-05
22 *984:CLK *314:24 0
23 *1063:A *314:24 0
24 *1155:A *314:10 0.000501511
25 *3:30 *314:24 0
26 *5:16 *314:24 0.000131027
27 *7:18 *314:24 0
28 *28:8 *314:10 0
29 *99:12 *314:10 0.00295087
30 *102:12 *1202:A 0
31 *303:14 *314:10 0
*RES
1 *1107:X *314:6 40 
2 *314:6 *314:10 39.6318 
3 *314:10 *314:24 32.7308 
4 *314:24 *1202:A 43.4814 
5 *314:10 *766:A 20.3193 
*END

*D_NET *315 0.000563402
*CONN
*I *994:D I *D sg13cmos5l_dfrbpq_1
*I *1108:X O *D sg13cmos5l_dlygate4sd3_1
*CAP
1 *994:D 0.000193944
2 *1108:X 0.000193944
3 *994:D *994:RESET_B 0.000175513
4 *1114:A *994:D 0
*RES
1 *1108:X *994:D 42.0291 
*END

*D_NET *316 0.00569821
*CONN
*I *779:A I *D sg13cmos5l_inv_1
*I *1181:A I *D sg13cmos5l_buf_1
*I *1109:X O *D sg13cmos5l_dlygate4sd3_1
*CAP
1 *779:A 0
2 *1181:A 0.000139181
3 *1109:X 0.000599643
4 *316:21 0.000429693
5 *316:6 0.00116852
6 *1181:A *318:12 0
7 *316:6 *1072:A 0
8 *316:21 *781:A 0
9 *316:21 *318:12 0
10 bp9 *316:21 0
11 *780:A *316:21 0.000659398
12 *15:24 *316:6 0
13 *17:12 *1181:A 0.000144767
14 *17:12 *316:6 0.00087053
15 *18:10 *1181:A 0
16 *112:10 *316:21 1.54008e-05
17 *243:30 *316:21 0.00087277
18 *278:41 *1181:A 0
19 *294:8 *316:21 0.000798308
20 *300:30 *316:6 0
*RES
1 *1109:X *316:6 25.9431 
2 *316:6 *1181:A 21.304 
3 *316:6 *316:21 47.5293 
4 *316:21 *779:A 20 
*END

*D_NET *317 0.00114184
*CONN
*I *1007:D I *D sg13cmos5l_dfrbpq_1
*I *1110:X O *D sg13cmos5l_dlygate4sd3_1
*CAP
1 *1007:D 0.000112241
2 *1110:X 0
3 *317:14 0.00040374
4 *317:6 0.000291499
5 *317:14 *369:12 7.64e-05
6 *1014:CLK *1007:D 0.000177032
7 *242:10 *317:14 8.09323e-05
8 *246:14 *1007:D 0
9 *254:89 *317:14 0
10 *298:18 *317:14 0
*RES
1 *1110:X *317:6 40 
2 *317:6 *317:14 43.4814 
3 *317:14 *1007:D 41.1845 
*END

*D_NET *318 0.00458001
*CONN
*I *1183:A I *D sg13cmos5l_buf_1
*I *781:A I *D sg13cmos5l_inv_1
*I *1111:X O *D sg13cmos5l_dlygate4sd3_1
*CAP
1 *1183:A 3.44638e-05
2 *781:A 0.0005293
3 *1111:X 0.000940536
4 *318:12 0.0015043
5 *318:12 *396:103 4.77425e-05
6 bp9 *781:A 0.000501045
7 bp9 *318:12 0.000265663
8 *783:A *781:A 0
9 *960:A1 *781:A 0.000241792
10 *1180:A *318:12 0.000339135
11 *1181:A *318:12 0
12 *17:12 *318:12 0
13 *103:14 *318:12 0.000176034
14 *243:30 *781:A 0
15 *290:29 *318:12 0
16 *312:14 *781:A 0
17 *316:21 *781:A 0
18 *316:21 *318:12 0
*RES
1 *1111:X *318:12 48.7138 
2 *318:12 *781:A 45.8916 
3 *318:12 *1183:A 40.3193 
*END

*D_NET *319 0.00177638
*CONN
*I *1099:A I *D sg13cmos5l_dlygate4sd3_1
*I *1003:Q O *D sg13cmos5l_dfrbpq_1
*CAP
1 *1099:A 0.000589166
2 *1003:Q 0.000589166
3 *1099:A *1085:A 0
4 *1099:A *1087:A 0
5 *1086:A *1099:A 0.000598053
6 *278:16 *1099:A 0
*RES
1 *1003:Q *1099:A 46.2109 
*END

*D_NET *320 0.00158031
*CONN
*I *1009:D I *D sg13cmos5l_dfrbpq_1
*I *1112:X O *D sg13cmos5l_dlygate4sd3_1
*CAP
1 *1009:D 0.000336046
2 *1112:X 0.000336046
3 *1009:D *966:C 0
4 *1009:D *398:68 0.000242121
5 *1009:D *398:87 0.000176639
6 *243:22 *1009:D 0.000489454
*RES
1 *1112:X *1009:D 43.9758 
*END

*D_NET *321 0.0111105
*CONN
*I *767:A I *D sg13cmos5l_inv_1
*I *1203:A I *D sg13cmos5l_buf_1
*I *1113:X O *D sg13cmos5l_dlygate4sd3_1
*CAP
1 *767:A 0.000447021
2 *1203:A 0
3 *1113:X 0.000301356
4 *321:42 0.000227731
5 *321:34 0.000632286
6 *321:24 0.00221715
7 *321:14 0.00256097
8 *767:A *993:RESET_B 0
9 *767:A *1113:A 8.03091e-05
10 *321:14 *993:RESET_B 9.57462e-05
11 *321:14 *996:RESET_B 0.000112108
12 *321:24 *886:A 0.000112548
13 *321:24 *370:24 0.000287672
14 *321:24 *379:21 0
15 *321:24 *400:61 0.000342648
16 *321:24 *413:10 0.000930629
17 *321:34 *390:23 0
18 *321:34 *390:34 2.15168e-05
19 *321:34 *392:84 8.00842e-05
20 *321:34 *411:25 0
21 *321:42 *384:73 0.000185245
22 *875:B *321:34 0.000144768
23 *875:B *321:42 0
24 *927:A2 *767:A 0
25 *994:CLK *767:A 0
26 *1063:A *321:24 0
27 *1148:A *321:24 0
28 *6:14 *321:24 0.000240881
29 *6:14 *321:42 0
30 *7:18 *321:24 0
31 *7:30 *321:24 0
32 *72:8 *321:14 0.00012816
33 *72:8 *321:24 0.000554492
34 *94:20 *321:42 4.78688e-05
35 *98:20 *321:24 7.65627e-05
36 *192:16 *321:34 0.000555042
37 *193:10 *321:42 0
38 *199:10 *321:24 0
39 *200:8 *321:24 0.000288598
40 *234:10 *767:A 1.54556e-05
41 *254:59 *321:24 0
42 *254:75 *321:24 0
43 *254:145 *321:14 0
44 *254:145 *321:24 0
45 *254:167 *321:24 0
46 *263:34 *321:34 0
47 *303:26 *321:24 0.000241667
48 *304:10 *321:14 0.000182023
*RES
1 *1113:X *321:14 43.4093 
2 *321:14 *321:24 41.1768 
3 *321:24 *321:34 44.5423 
4 *321:34 *321:42 42.0291 
5 *321:42 *1203:A 20 
6 *321:14 *767:A 42.7549 
*END

*D_NET *322 0.00102877
*CONN
*I *995:D I *D sg13cmos5l_dfrbpq_1
*I *1114:X O *D sg13cmos5l_dlygate4sd3_1
*CAP
1 *995:D 0.000156648
2 *1114:X 8.38222e-05
3 *322:8 0.00024047
4 *995:D *1189:A 1.54556e-05
5 *995:D *421:12 0.000241407
6 *322:8 *342:12 0
7 *26:18 *995:D 0
8 *97:14 *322:8 0.00029097
*RES
1 *1114:X *322:8 41.339 
2 *322:8 *995:D 41.6171 
*END

*D_NET *323 0.00334566
*CONN
*I *830:C I *D sg13cmos5l_and4_1
*I *818:B I *D sg13cmos5l_nand2b_1
*I *821:C I *D sg13cmos5l_nand3_1
*I *817:B1 I *D sg13cmos5l_a21oi_1
*I *1115:X O *D sg13cmos5l_dlygate4sd3_1
*CAP
1 *830:C 0
2 *818:B 0
3 *821:C 8.84151e-05
4 *817:B1 8.19575e-05
5 *1115:X 3.03095e-05
6 *323:36 0.00018999
7 *323:30 0.000357724
8 *323:10 0.000729938
9 *323:6 0.00075761
10 *323:36 *439:25 0.00023464
11 *817:A2 *323:10 1.54008e-05
12 *830:D *323:30 1.54008e-05
13 *967:CLK *821:C 0
14 *969:CLK *817:B1 0
15 *969:CLK *821:C 0
16 *45:8 *323:36 0
17 *135:50 *323:36 0.000181192
18 *135:58 *323:36 0.000159511
19 *135:64 *323:36 7.52149e-05
20 *146:12 *323:36 0
21 *150:12 *323:10 0
22 *150:12 *323:30 0
23 *283:38 *323:10 0
24 *283:53 *817:B1 0.00012816
25 *283:53 *821:C 7.51285e-05
26 *283:53 *323:10 4.77425e-05
27 *285:35 *323:6 0
28 *285:35 *323:10 0
29 *285:35 *323:30 0.000177321
*RES
1 *1115:X *323:6 20.3502 
2 *323:6 *323:10 24.6453 
3 *323:10 *817:B1 41.0918 
4 *323:10 *821:C 41.0918 
5 *323:6 *323:30 1.6171 
6 *323:30 *323:36 42.8222 
7 *323:36 *818:B 20 
8 *323:30 *830:C 20 
*END

*D_NET *324 0.000492873
*CONN
*I *969:D I *D sg13cmos5l_dfrbpq_1
*I *1116:X O *D sg13cmos5l_dlygate4sd3_1
*CAP
1 *969:D 0.000246437
2 *1116:X 0.000246437
3 *969:D *395:32 0
4 *832:A_N *969:D 0
5 *24:26 *969:D 0
*RES
1 *1116:X *969:D 42.5235 
*END

*D_NET *325 0.00619882
*CONN
*I *787:A_N I *D sg13cmos5l_nand3b_1
*I *789:B I *D sg13cmos5l_nand3b_1
*I *807:A I *D sg13cmos5l_nand2_1
*I *1117:X O *D sg13cmos5l_dlygate4sd3_1
*CAP
1 *787:A_N 0.000137331
2 *789:B 5.37171e-05
3 *807:A 0.000604957
4 *1117:X 0.000155203
5 *325:53 0.000593528
6 *325:45 0.000456197
7 *325:10 0.000813877
8 *787:A_N *787:C 1.54556e-05
9 *787:A_N *1066:A 1.54556e-05
10 *789:B *789:C 1.54008e-05
11 *807:A *786:B_N 4.77425e-05
12 *807:A *793:A 7.68089e-05
13 *807:A *447:10 0.000399038
14 *325:10 *789:C 0.000177339
15 *325:10 *346:10 0.000144942
16 *325:10 *447:10 0.000212215
17 *325:53 *335:34 0
18 *787:B *787:A_N 0
19 *121:47 *325:53 0.000212635
20 *121:66 *325:53 0.00022836
21 *122:14 *325:53 0
22 *125:12 *325:53 0.000666909
23 *135:18 *325:10 0
24 *136:31 *807:A 0.000143865
25 *137:34 *787:A_N 0
26 *137:42 *807:A 0
27 *138:6 *807:A 0.000124901
28 *148:14 *789:B 8.00842e-05
29 *170:14 *787:A_N 0
30 *256:86 *325:53 7.5326e-05
31 *269:23 *807:A 0.000453256
32 *269:23 *325:10 0.000128406
33 *282:31 *807:A 0.000165872
*RES
1 *1117:X *325:10 42.2763 
2 *325:10 *807:A 47.3439 
3 *325:10 *789:B 40.5356 
4 *1117:X *325:45 40 
5 *325:45 *325:53 45.9843 
6 *325:53 *787:A_N 41.3493 
*END

*D_NET *326 0.00254893
*CONN
*I *846:A1 I *D sg13cmos5l_a21o_1
*I *845:A I *D sg13cmos5l_nor3_1
*I *1118:X O *D sg13cmos5l_dlygate4sd3_1
*CAP
1 *846:A1 0
2 *845:A 0
3 *1118:X 0
4 *326:31 0.000383967
5 *326:12 0.000401986
6 *326:4 0.000785952
7 *326:12 *808:B 7.52158e-05
8 *326:12 *840:B 0.000181192
9 *326:12 *327:8 0.000287845
10 *326:12 *328:21 0.000181608
11 *326:31 *328:21 0
12 *326:31 *445:25 0
13 *326:31 *446:10 0
14 *841:B *326:31 0.000234224
15 *845:C *326:12 0
16 *846:A2 *326:31 1.69409e-05
17 *165:8 *326:31 0
*RES
1 *1118:X *326:4 20 
2 *326:4 *326:12 45.3663 
3 *326:12 *845:A 20 
4 *326:4 *326:31 43.9449 
5 *326:31 *846:A1 20 
*END

*D_NET *327 0.00106127
*CONN
*I *974:D I *D sg13cmos5l_dfrbpq_1
*I *1119:X O *D sg13cmos5l_dlygate4sd3_1
*CAP
1 *974:D 0.000108067
2 *1119:X 0.000278646
3 *327:8 0.000386713
4 *974:D *395:10 0
5 *845:C *327:8 0
6 *326:12 *327:8 0.000287845
*RES
1 *1119:X *327:8 43.5638 
2 *327:8 *974:D 41.1845 
*END

*D_NET *328 0.0024139
*CONN
*I *840:C I *D sg13cmos5l_nand4_1
*I *760:A I *D sg13cmos5l_inv_1
*I *1120:X O *D sg13cmos5l_dlygate4sd3_1
*CAP
1 *840:C 0
2 *760:A 6.84791e-05
3 *1120:X 0.000118512
4 *328:21 0.000780473
5 *328:6 0.000967464
6 *328:21 *808:B 0
7 *328:21 *840:B 4.77425e-05
8 *840:D *328:21 1.54008e-05
9 *841:B *328:21 0
10 *24:26 *328:6 0
11 *93:8 *328:21 0.000234224
12 *135:117 *328:6 0
13 *139:10 *328:21 0
14 *148:36 *328:21 0
15 *326:12 *328:21 0.000181608
16 *326:31 *328:21 0
*RES
1 *1120:X *328:6 20.9682 
2 *328:6 *760:A 20.5356 
3 *328:6 *328:21 47.0658 
4 *328:21 *840:C 20 
*END

*D_NET *329 0.000910549
*CONN
*I *844:B I *D sg13cmos5l_and2_1
*I *1121:X O *D sg13cmos5l_dlygate4sd3_1
*CAP
1 *844:B 0
2 *1121:X 0.000455275
3 *329:10 0.000455275
4 *329:10 *973:D 0
5 *329:10 *395:80 0
6 *329:10 *445:25 0
7 *844:A *329:10 0
8 *973:CLK *329:10 0
9 *1122:A *329:10 0
*RES
1 *1121:X *329:10 44.9337 
2 *329:10 *844:B 40 
*END

*D_NET *330 0.000155066
*CONN
*I *1094:A I *D sg13cmos5l_dlygate4sd3_1
*I *1004:Q O *D sg13cmos5l_dfrbpq_1
*CAP
1 *1094:A 7.7533e-05
2 *1004:Q 7.7533e-05
3 *1094:A *1003:RESET_B 0
4 *950:A2 *1094:A 0
*RES
1 *1004:Q *1094:A 40.9167 
*END

*D_NET *331 0.000356425
*CONN
*I *973:D I *D sg13cmos5l_dfrbpq_1
*I *1122:X O *D sg13cmos5l_dlygate4sd3_1
*CAP
1 *973:D 0.000178212
2 *1122:X 0.000178212
3 *973:D *975:RESET_B 0
4 *329:10 *973:D 0
*RES
1 *1122:X *973:D 42.0291 
*END

*D_NET *332 0.00170629
*CONN
*I *837:B I *D sg13cmos5l_nand3_1
*I *759:A I *D sg13cmos5l_inv_1
*I *836:B I *D sg13cmos5l_nand2b_1
*I *1123:X O *D sg13cmos5l_dlygate4sd3_1
*CAP
1 *837:B 0
2 *759:A 6.94032e-05
3 *836:B 9.31732e-05
4 *1123:X 0
5 *332:30 0.000189503
6 *332:6 0.000325114
7 *332:4 0.00035204
8 *332:30 *443:12 0
9 *831:B *836:B 8.02434e-05
10 *831:B *332:6 0
11 *836:A_N *759:A 3.75762e-05
12 *836:A_N *836:B 1.54008e-05
13 *839:A2 *759:A 0
14 *839:A1 *759:A 0
15 *839:A1 *332:6 0
16 *48:8 *332:30 0
17 *135:64 *759:A 0
18 *151:8 *332:30 0.000128248
19 *157:12 *332:30 0
20 *162:10 *332:6 0
21 *162:10 *332:30 0.00018128
22 *164:8 *332:30 0.000234311
*RES
1 *1123:X *332:4 20 
2 *332:4 *332:6 1.4008 
3 *332:6 *836:B 21.133 
4 *332:6 *759:A 20.8858 
5 *332:4 *332:30 42.3278 
6 *332:30 *837:B 20 
*END

*D_NET *333 0.00124151
*CONN
*I *972:D I *D sg13cmos5l_dfrbpq_1
*I *1124:X O *D sg13cmos5l_dlygate4sd3_1
*CAP
1 *972:D 0
2 *1124:X 0.000503438
3 *333:10 0.000503438
4 *333:10 *395:18 0
5 *333:10 *443:8 0
6 *833:B *333:10 0.00023464
7 *255:22 *333:10 0
*RES
1 *1124:X *333:10 45.8916 
2 *333:10 *972:D 40 
*END

*D_NET *334 0.00336727
*CONN
*I *833:A I *D sg13cmos5l_nand2_1
*I *832:B I *D sg13cmos5l_nand2b_1
*I *831:A I *D sg13cmos5l_nor2_1
*I *1125:X O *D sg13cmos5l_dlygate4sd3_1
*CAP
1 *833:A 0
2 *832:B 0
3 *831:A 0.00023273
4 *1125:X 5.16618e-05
5 *334:30 0.000771278
6 *334:8 0.000482911
7 *334:6 0.00107312
8 *334:8 *395:20 0
9 *334:8 *395:32 0
10 *334:30 *395:18 0
11 *334:30 *395:32 0
12 *334:30 *443:8 0
13 *831:B *831:A 0
14 *832:A_N *831:A 1.54556e-05
15 *832:A_N *334:6 7.92329e-05
16 *832:A_N *334:8 0.000435997
17 *839:A2 *334:30 0
18 *971:D *334:8 0.000177142
19 *24:26 *831:A 0
20 *47:8 *334:30 0
21 *159:10 *334:8 0
22 *160:12 *334:30 0
23 *255:22 *334:30 4.77425e-05
*RES
1 *1125:X *334:6 20.5356 
2 *334:6 *334:8 2.9149 
3 *334:8 *831:A 22.6162 
4 *334:8 *832:B 20 
5 *334:6 *334:30 47.2203 
6 *334:30 *833:A 20 
*END

*D_NET *335 0.00414443
*CONN
*I *787:C I *D sg13cmos5l_nand3b_1
*I *789:C I *D sg13cmos5l_nand3b_1
*I *1126:X O *D sg13cmos5l_dlygate4sd3_1
*CAP
1 *787:C 0.000106728
2 *789:C 0.000772781
3 *1126:X 0.00124034
4 *335:34 0.00057429
5 *787:C *1066:A 0
6 *787:C *449:14 4.24346e-05
7 *789:C *346:10 0
8 *335:34 *449:26 0
9 *787:B *787:C 1.54556e-05
10 *787:A_N *787:C 1.54556e-05
11 *789:B *789:C 1.54008e-05
12 *789:A_N *789:C 0.000127827
13 *805:A *789:C 0
14 *819:A1 *789:C 0
15 *1067:A *789:C 0.000144491
16 *118:8 *789:C 0
17 *118:8 *335:34 1.54008e-05
18 *118:14 *335:34 7.65627e-05
19 *118:42 *335:34 4.74248e-05
20 *120:30 *787:C 0
21 *123:16 *787:C 0
22 *123:16 *335:34 0
23 *126:25 *335:34 0.00029087
24 *135:10 *789:C 0
25 *135:18 *789:C 0
26 *148:14 *789:C 1.54008e-05
27 *256:86 *789:C 0.000466224
28 *256:86 *335:34 0
29 *269:12 *789:C 0
30 *325:10 *789:C 0.000177339
31 *325:53 *335:34 0
*RES
1 *1126:X *789:C 47.7765 
2 *1126:X *335:34 44.7998 
3 *335:34 *787:C 40.9682 
*END

*D_NET *336 0.000471331
*CONN
*I *853:A I *D sg13cmos5l_nand2_1
*I *1127:X O *D sg13cmos5l_dlygate4sd3_1
*CAP
1 *853:A 0.000195852
2 *1127:X 0.000195852
3 *853:A *849:A0 0
4 *853:A *388:61 0
5 *853:A *391:35 0
6 *174:10 *853:A 7.96263e-05
7 *219:54 *853:A 0
*RES
1 *1127:X *853:A 41.9673 
*END

*D_NET *337 0.000953763
*CONN
*I *977:D I *D sg13cmos5l_dfrbpq_1
*I *1128:X O *D sg13cmos5l_dlygate4sd3_1
*CAP
1 *977:D 0
2 *1128:X 0.000271175
3 *337:10 0.000271175
4 *337:10 *1054:A 0
5 *337:10 *394:10 0.000235141
6 *255:62 *337:10 0.000176274
*RES
1 *1128:X *337:10 42.7707 
2 *337:10 *977:D 40 
*END

*D_NET *338 0.00231453
*CONN
*I *857:B1 I *D sg13cmos5l_a21oi_1
*I *860:A1 I *D sg13cmos5l_a21o_1
*I *1129:X O *D sg13cmos5l_dlygate4sd3_1
*CAP
1 *857:B1 0.000310861
2 *860:A1 0.000396013
3 *1129:X 0
4 *338:6 0.000706874
5 *857:B1 *378:32 0.000340704
6 *860:A1 *849:A0 0
7 *860:A1 *898:A 0
8 *860:A1 *378:32 0.000287204
9 *1129:A *860:A1 0
10 *42:12 *860:A1 0
11 *179:16 *860:A1 0.000272878
*RES
1 *1129:X *338:6 40 
2 *338:6 *860:A1 44.2848 
3 *338:6 *857:B1 42.987 
*END

*D_NET *339 0.0012656
*CONN
*I *794:A I *D sg13cmos5l_and2_1
*I *1130:X O *D sg13cmos5l_dlygate4sd3_1
*CAP
1 *794:A 0.000618686
2 *1130:X 0.000618686
3 *794:A *848:A_N 0
4 *794:A *378:8 2.21754e-05
5 *794:A *437:6 0
6 *794:A *437:20 0
7 *794:A *449:8 0
8 *1040:A *794:A 0
9 *1045:A *794:A 0
10 *120:30 *794:A 6.05155e-06
11 *123:16 *794:A 0
12 *126:25 *794:A 0
*RES
1 *1130:X *794:A 45.8195 
*END

*D_NET *340 0.00179061
*CONN
*I *1197:A I *D sg13cmos5l_buf_1
*I *1131:X O *D sg13cmos5l_dlygate4sd3_1
*CAP
1 *1197:A 0.000256796
2 *1131:X 0.000149304
3 *340:10 0.000406101
4 *340:10 *1198:A 0.000177191
5 *778:A *340:10 0.000288087
6 *783:A *1197:A 0
7 *1029:A *1197:A 4.78524e-05
8 *19:10 *340:10 0.000177191
9 *22:8 *1197:A 0
10 *113:8 *340:10 0.000288087
*RES
1 *1131:X *340:10 42.5235 
2 *340:10 *1197:A 42.266 
*END

*D_NET *341 0.00171074
*CONN
*I *1085:A I *D sg13cmos5l_dlygate4sd3_1
*I *1005:Q O *D sg13cmos5l_dfrbpq_1
*CAP
1 *1085:A 0.000604574
2 *1005:Q 0.000604574
3 *1085:A *1087:A 0
4 *1085:A *1089:A 0
5 *1086:A *1085:A 0
6 *1099:A *1085:A 0
7 *288:25 *1085:A 0
8 *305:49 *1085:A 0.000501589
*RES
1 *1005:Q *1085:A 46.2109 
*END

*D_NET *342 0.0127543
*CONN
*I *1199:A I *D sg13cmos5l_buf_1
*I *1132:X O *D sg13cmos5l_dlygate4sd3_1
*CAP
1 *1199:A 0
2 *1132:X 0.000112211
3 *342:18 0.00125923
4 *342:12 0.00284957
5 *342:8 0.00170255
6 *342:8 *1097:A 0
7 *342:12 *370:39 0.00103427
8 *342:12 *382:8 0
9 *342:12 *400:71 0
10 *342:18 *379:51 0.000146051
11 bn3 *342:12 0.00508604
12 *4:12 *342:18 0
13 *5:16 *342:18 0
14 *40:12 *342:18 0
15 *73:12 *342:12 0
16 *97:14 *342:12 0
17 *184:8 *342:18 2.21839e-05
18 *186:24 *342:18 0.000146301
19 *213:24 *342:18 0
20 *261:72 *342:8 0
21 *311:10 *342:12 0.000395896
22 *322:8 *342:12 0
*RES
1 *1132:X *342:8 40.9682 
2 *342:8 *342:12 43.587 
3 *342:12 *342:18 31.8553 
4 *342:18 *1199:A 40 
*END

*D_NET *343 0.0062382
*CONN
*I *1187:A I *D sg13cmos5l_buf_1
*I *1133:X O *D sg13cmos5l_dlygate4sd3_1
*CAP
1 *1187:A 0.00058728
2 *1133:X 0.000817237
3 *343:12 0.00140452
4 *1187:A *385:31 0.000288432
5 *1187:A *399:21 0
6 *1187:A *400:27 0.000176981
7 *343:12 *1133:A 0
8 *343:12 *374:50 0.000111928
9 *343:12 *377:25 0
10 *343:12 *383:52 0.000111596
11 *919:B *1187:A 0.000176521
12 *931:A2 *343:12 0.00014338
13 *943:B *343:12 0
14 *999:CLK *343:12 0.00027343
15 *134:39 *1187:A 0.000395884
16 *206:24 *1187:A 7.54103e-05
17 *225:8 *1187:A 0
18 *307:14 *1187:A 0.00167561
*RES
1 *1133:X *343:12 47.2265 
2 *343:12 *1187:A 48.9507 
*END

*D_NET *344 0.00840449
*CONN
*I *1186:A I *D sg13cmos5l_buf_1
*I *1134:X O *D sg13cmos5l_dlygate4sd3_1
*CAP
1 *1186:A 0
2 *1134:X 0.000258175
3 *344:16 0.000814955
4 *344:8 0.00107313
5 *344:8 *938:D 0.000436166
6 *344:8 *399:29 0
7 *344:8 *399:52 0
8 *344:16 *384:52 9.54167e-05
9 *344:16 *388:45 1.53326e-05
10 *9:14 *344:16 0.00284482
11 *90:18 *344:16 1.54008e-05
12 *213:24 *344:16 0
13 *307:8 *344:8 0.000112579
14 *307:14 *344:16 0.00273851
*RES
1 *1134:X *344:8 42.9149 
2 *344:8 *344:16 35.5427 
3 *344:16 *1186:A 20 
*END

*D_NET *345 0.00121218
*CONN
*I *1050:A I *D sg13cmos5l_buf_1
*I *1135:X O *D sg13cmos5l_dlygate4sd3_1
*CAP
1 *1050:A 6.12416e-05
2 *1135:X 8.58277e-05
3 *345:8 0.000147069
4 *345:8 *360:26 0.00044793
5 *345:8 *438:40 0.000181525
6 *345:8 *438:53 0.000288589
7 *128:33 *1050:A 0
*RES
1 *1135:X *345:8 42.0806 
2 *345:8 *1050:A 40.5356 
*END

*D_NET *346 0.00266423
*CONN
*I *806:A I *D sg13cmos5l_nor2_1
*I *1136:X O *D sg13cmos5l_dlygate4sd3_1
*CAP
1 *806:A 0.000199046
2 *1136:X 0.000435363
3 *346:10 0.000634409
4 *346:10 *448:12 0.000291475
5 *346:10 *448:48 0.000448392
6 *789:C *346:10 0
7 *1018:A *806:A 0
8 *108:18 *346:10 0
9 *135:18 *346:10 0.000274397
10 *137:34 *806:A 0
11 *148:82 *806:A 0
12 *256:10 *346:10 0.000236202
13 *269:42 *806:A 0
14 *325:10 *346:10 0.000144942
*RES
1 *1136:X *346:10 45.3972 
2 *346:10 *806:A 41.5888 
*END

*D_NET *347 0.00167869
*CONN
*I *1087:A I *D sg13cmos5l_dlygate4sd3_1
*I *1006:Q O *D sg13cmos5l_dfrbpq_1
*CAP
1 *1087:A 0.00062096
2 *1006:Q 0.00062096
3 *1087:A *1089:A 0
4 *1085:A *1087:A 0
5 *1099:A *1087:A 0
6 *18:16 *1087:A 0.000436774
7 *288:25 *1087:A 0
8 *305:49 *1087:A 0
*RES
1 *1006:Q *1087:A 46.2109 
*END

*D_NET *348 0.00179876
*CONN
*I *1109:A I *D sg13cmos5l_dlygate4sd3_1
*I *1007:Q O *D sg13cmos5l_dfrbpq_1
*CAP
1 *1109:A 0.000343922
2 *1007:Q 0.000206089
3 *348:10 0.000550011
4 *348:10 *369:36 0
5 *15:24 *1109:A 0.000522139
6 *260:14 *1109:A 0.000176601
7 *260:25 *1109:A 0
8 *290:8 *348:10 0
9 *295:10 *348:10 0
*RES
1 *1007:Q *348:10 42.1527 
2 *348:10 *1109:A 43.6977 
*END

*D_NET *349 0.00157585
*CONN
*I *1161:A I *D sg13cmos5l_dlygate4sd3_1
*I *1170:X O *D sg13cmos5l_buf_1
*CAP
1 *1161:A 0
2 *1170:X 0.000787927
3 *349:10 0.000787927
4 *349:10 *1170:A 0
5 *1160:A *349:10 0
*RES
1 *1170:X *349:10 49.1052 
2 *349:10 *1161:A 40 
*END

*D_NET *350 0.00263436
*CONN
*I *1089:A I *D sg13cmos5l_dlygate4sd3_1
*I *1008:Q O *D sg13cmos5l_dfrbpq_1
*CAP
1 *1089:A 0.000775778
2 *1008:Q 0.000775778
3 *1089:A *1105:A 0
4 *1085:A *1089:A 0
5 *1087:A *1089:A 0
6 *18:16 *1089:A 0
7 *298:24 *1089:A 0
8 *305:49 *1089:A 0.0010828
*RES
1 *1008:Q *1089:A 47.9413 
*END

*D_NET *351 0.00105812
*CONN
*I *1111:A I *D sg13cmos5l_dlygate4sd3_1
*I *1009:Q O *D sg13cmos5l_dfrbpq_1
*CAP
1 *1111:A 0
2 *1009:Q 0.000249338
3 *351:10 0.000249338
4 *1007:CLK *351:10 0.00024211
5 *105:8 *351:10 7.51285e-05
6 *245:28 *351:10 0.000242203
*RES
1 *1009:Q *351:10 42.9561 
2 *351:10 *1111:A 40 
*END

*D_NET *352 0.00122298
*CONN
*I *1105:A I *D sg13cmos5l_dlygate4sd3_1
*I *1010:Q O *D sg13cmos5l_dfrbpq_1
*CAP
1 *1105:A 0.000410048
2 *1010:Q 0.000410048
3 *1089:A *1105:A 0
4 *18:16 *1105:A 0.00040288
*RES
1 *1010:Q *1105:A 44.2642 
*END

*D_NET *353 0.000925278
*CONN
*I *1072:A I *D sg13cmos5l_dlygate4sd3_1
*I *1011:Q O *D sg13cmos5l_dfrbpq_1
*CAP
1 *1072:A 0.000462639
2 *1011:Q 0.000462639
3 *290:29 *1072:A 0
4 *300:30 *1072:A 0
5 *316:6 *1072:A 0
*RES
1 *1011:Q *1072:A 43.6977 
*END

*D_NET *354 0.00583387
*CONN
*I *1134:A I *D sg13cmos5l_dlygate4sd3_1
*I *963:A I *D sg13cmos5l_nand2_1
*I *1012:Q O *D sg13cmos5l_dfrbpq_1
*CAP
1 *1134:A 0
2 *963:A 0.00015869
3 *1012:Q 0.00204783
4 *354:36 0.00128843
5 *354:10 0.00091809
6 *354:10 *1005:RESET_B 0
7 *354:10 *397:45 0
8 *354:10 *406:10 0
9 *354:36 *1101:A 5.75721e-05
10 *354:36 *381:10 0.00017635
11 *354:36 *383:105 0.000501211
12 *354:36 *399:29 0
13 *354:36 *399:52 0
14 *938:B *354:36 0
15 *939:A2 *354:36 0
16 *1001:D *354:36 0
17 *1002:D *354:36 0
18 *1003:D *354:36 0
19 *1091:A *354:36 0.000135843
20 *11:10 *354:36 0
21 *76:10 *354:36 0.000111601
22 *80:10 *354:10 0
23 *103:14 *354:36 0
24 *105:16 *354:36 0
25 *108:18 *963:A 0.000187923
26 *240:28 *354:10 0
27 *240:28 *354:36 1.54008e-05
28 *244:28 *963:A 0.000144156
29 *245:28 *354:36 1.53931e-05
30 *256:101 *354:10 0
31 *273:24 *354:10 7.53765e-05
*RES
1 *1012:Q *354:10 47.0967 
2 *354:10 *963:A 41.7561 
3 *1012:Q *354:36 32.5995 
4 *354:36 *1134:A 20 
*END

*D_NET *355 0.00794792
*CONN
*I *1133:A I *D sg13cmos5l_dlygate4sd3_1
*I *868:B1 I *D sg13cmos5l_o21ai_1
*I *982:Q O *D sg13cmos5l_dfrbpq_1
*CAP
1 *1133:A 0.000386808
2 *868:B1 7.91912e-05
3 *982:Q 0.000904304
4 *355:32 0.000697051
5 *355:14 0.000673251
6 *1133:A *374:50 0.000199769
7 *355:14 *1059:A 0.000555715
8 *355:14 *400:33 0.000559003
9 *355:32 *932:D 0
10 *355:32 *377:55 0.000985171
11 *355:32 *401:68 0
12 *868:A2 *868:B1 4.77425e-05
13 *869:A1 *868:B1 0
14 *927:A2 *1133:A 0
15 *5:16 *355:14 0.000962942
16 *8:14 *355:14 0
17 *26:10 *355:14 0
18 *102:22 *355:32 0
19 *186:41 *355:32 0.0007175
20 *193:29 *355:14 1.54008e-05
21 *210:37 *355:32 0.000129679
22 *234:10 *1133:A 0.00034617
23 *258:51 *355:14 0
24 *263:53 *355:14 0.000289619
25 *298:10 *1133:A 0.000111027
26 *298:10 *355:32 0.000287572
27 *302:14 *355:14 0
28 *343:12 *1133:A 0
*RES
1 *982:Q *355:14 48.446 
2 *355:14 *868:B1 40.7519 
3 *982:Q *355:32 45.7886 
4 *355:32 *1133:A 44.2642 
*END

*D_NET *356 0.000742582
*CONN
*I *1168:A I *D sg13cmos5l_dlygate4sd3_1
*I *983:Q O *D sg13cmos5l_dfrbpq_1
*CAP
1 *1168:A 0.000250236
2 *983:Q 0.000250236
3 *1168:A *421:12 0.00024211
4 *8:14 *1168:A 0
5 *26:18 *1168:A 0
*RES
1 *983:Q *1168:A 42.7089 
*END

*D_NET *357 0.00022534
*CONN
*I *1154:A I *D sg13cmos5l_dlygate4sd3_1
*I *984:Q O *D sg13cmos5l_dfrbpq_1
*CAP
1 *1154:A 7.7626e-05
2 *984:Q 7.7626e-05
3 *1154:A *400:65 0
4 *5:32 *1154:A 7.00878e-05
*RES
1 *984:Q *1154:A 40.9167 
*END

*D_NET *358 0.000212074
*CONN
*I *1147:A I *D sg13cmos5l_dlygate4sd3_1
*I *985:Q O *D sg13cmos5l_dfrbpq_1
*CAP
1 *1147:A 8.21659e-05
2 *985:Q 8.21659e-05
3 *983:D *1147:A 0
4 *984:CLK *1147:A 4.77425e-05
*RES
1 *985:Q *1147:A 40.9167 
*END

*D_NET *359 0.000470613
*CONN
*I *1064:A I *D sg13cmos5l_dlygate4sd3_1
*I *986:Q O *D sg13cmos5l_dfrbpq_1
*CAP
1 *1064:A 0.000235306
2 *986:Q 0.000235306
3 *986:CLK *1064:A 0
4 *1156:A *1064:A 0
5 *1191:A *1064:A 0
6 *6:14 *1064:A 0
*RES
1 *986:Q *1064:A 42.4926 
*END

*D_NET *360 0.0118788
*CONN
*I *1138:A I *D sg13cmos5l_dlygate4sd3_1
*I *785:A I *D sg13cmos5l_inv_1
*I *1171:X O *D sg13cmos5l_buf_1
*CAP
1 *1138:A 0
2 *785:A 0.000490087
3 *1171:X 0.000135966
4 *360:26 0.00173296
5 *360:14 0.00283453
6 *360:8 0.00172761
7 *785:A *384:52 0
8 *360:14 *1054:A 0
9 *360:14 *391:29 3.23417e-05
10 *360:14 *391:35 0
11 *360:14 *394:10 0
12 *360:14 *438:83 0.000182167
13 *360:26 *850:B 7.93152e-05
14 *360:26 *389:30 0
15 *360:26 *389:78 0
16 *360:26 *391:29 0.000207785
17 *360:26 *392:10 2.25909e-05
18 *360:26 *400:10 0
19 *360:26 *401:32 0.000235658
20 *360:26 *401:38 0
21 *360:26 *438:31 0.000289715
22 *360:26 *438:40 0
23 *360:26 *438:53 0
24 *360:26 *438:77 0
25 *360:26 *449:48 0.00023853
26 *788:A *785:A 0.000144361
27 *856:A1 *360:14 0
28 *912:A *360:14 0.000128576
29 *981:CLK *785:A 0
30 *1137:A *360:14 0
31 *42:12 *360:14 0.000819599
32 *42:22 *360:26 0
33 *53:8 *360:14 0.000661558
34 *170:14 *785:A 0.000221687
35 *171:8 *360:14 0
36 *174:10 *360:14 0
37 *206:16 *360:26 0.00124583
38 *216:56 *360:14 0
39 *269:8 *785:A 0
40 *345:8 *360:26 0.00044793
*RES
1 *1171:X *360:8 41.4008 
2 *360:8 *360:14 40.4455 
3 *360:14 *360:26 34.6054 
4 *360:26 *785:A 44.3466 
5 *360:14 *1138:A 20 
*END

*D_NET *361 0.00121678
*CONN
*I *1152:A I *D sg13cmos5l_dlygate4sd3_1
*I *987:Q O *D sg13cmos5l_dfrbpq_1
*CAP
1 *1152:A 0.000358607
2 *987:Q 0.000358607
3 *1152:A *986:RESET_B 0.000499566
4 *1149:A *1152:A 0
5 *204:10 *1152:A 0
*RES
1 *987:Q *1152:A 43.9449 
*END

*D_NET *362 0.000497317
*CONN
*I *1157:A I *D sg13cmos5l_dlygate4sd3_1
*I *988:Q O *D sg13cmos5l_dfrbpq_1
*CAP
1 *1157:A 0.000248659
2 *988:Q 0.000248659
3 *1157:A *987:D 0
4 *1157:A *425:8 0
5 *1153:A *1157:A 0
*RES
1 *988:Q *1157:A 42.4926 
*END

*D_NET *363 0.00285928
*CONN
*I *1150:A I *D sg13cmos5l_dlygate4sd3_1
*I *989:Q O *D sg13cmos5l_dfrbpq_1
*CAP
1 *1150:A 0.000360257
2 *989:Q 0.000417407
3 *363:8 0.000777664
4 *1150:A *988:RESET_B 0
5 *1150:A *989:RESET_B 0.000241847
6 *1150:A *424:14 0
7 *1150:A *424:29 0
8 *363:8 *903:B1 0
9 *363:8 *433:28 0
10 *988:CLK *1150:A 0.000242039
11 *257:16 *363:8 0.000532395
12 *257:22 *363:8 0.000287672
13 *263:16 *363:8 0
*RES
1 *989:Q *363:8 44.6878 
2 *363:8 *1150:A 43.7801 
*END

*D_NET *364 0.0010568
*CONN
*I *1162:A I *D sg13cmos5l_dlygate4sd3_1
*I *990:Q O *D sg13cmos5l_dfrbpq_1
*CAP
1 *1162:A 0.00017509
2 *990:Q 0.00035331
3 *364:8 0.0005284
4 *1162:A *394:35 0
5 *364:8 *430:14 0
6 *907:B1 *364:8 0
7 *909:B *1162:A 0
*RES
1 *990:Q *364:8 43.811 
2 *364:8 *1162:A 41.6171 
*END

*D_NET *365 0.00173873
*CONN
*I *1165:A I *D sg13cmos5l_dlygate4sd3_1
*I *991:Q O *D sg13cmos5l_dfrbpq_1
*CAP
1 *1165:A 0
2 *991:Q 0.00064594
3 *365:12 0.00064594
4 *365:12 *430:14 0
5 *365:12 *433:28 0
6 *209:33 *365:12 0.000446854
*RES
1 *991:Q *365:12 46.2727 
2 *365:12 *1165:A 40 
*END

*D_NET *366 0.00242603
*CONN
*I *1131:A I *D sg13cmos5l_dlygate4sd3_1
*I *1015:Q O *D sg13cmos5l_dfrbpq_1
*CAP
1 *1131:A 0.000137861
2 *1015:Q 0.000361335
3 *366:8 0.000499196
4 *1131:A *954:B1 0.000240328
5 *366:8 *396:16 0.000340288
6 *1029:A *366:8 0.000446855
7 *84:12 *1131:A 0.000240328
8 *260:37 *366:8 0.000159839
9 *298:24 *366:8 0
*RES
1 *1015:Q *366:8 44.3054 
2 *366:8 *1131:A 41.6171 
*END

*D_NET *367 0.00185367
*CONN
*I *1141:A I *D sg13cmos5l_dlygate4sd3_1
*I *1014:Q O *D sg13cmos5l_dfrbpq_1
*CAP
1 *1141:A 0
2 *1014:Q 0.000409458
3 *367:10 0.000409458
4 *367:10 *1005:RESET_B 0
5 *367:10 *372:12 0.000501211
6 *107:8 *367:10 0
7 *245:28 *367:10 0.000533542
*RES
1 *1014:Q *367:10 44.9028 
2 *367:10 *1141:A 40 
*END

*D_NET *368 0.00361552
*CONN
*I *1132:A I *D sg13cmos5l_dlygate4sd3_1
*I *1013:Q O *D sg13cmos5l_dfrbpq_1
*CAP
1 *1132:A 0
2 *1013:Q 0
3 *368:12 0.00130813
4 *368:6 0.00130813
5 *368:12 *393:8 0.000983812
6 bn2 *368:12 0
7 bn3 *368:12 0
8 *261:72 *368:12 1.54556e-05
9 *303:14 *368:12 0
10 *314:10 *368:12 0
*RES
1 *1013:Q *368:6 40 
2 *368:6 *368:12 36.2122 
3 *368:12 *1132:A 20 
*END

*D_NET *369 0.0174524
*CONN
*I *960:B1 I *D sg13cmos5l_a21oi_1
*I *946:B1 I *D sg13cmos5l_a21oi_1
*I *944:B1 I *D sg13cmos5l_a21oi_1
*I *956:B1 I *D sg13cmos5l_a21oi_1
*I *958:B1 I *D sg13cmos5l_a21oi_1
*I *950:B1 I *D sg13cmos5l_a21oi_1
*I *954:B1 I *D sg13cmos5l_a21oi_1
*I *952:B1 I *D sg13cmos5l_a21oi_1
*I *1032:X O *D sg13cmos5l_buf_1
*CAP
1 *960:B1 0
2 *946:B1 0
3 *944:B1 0
4 *956:B1 0
5 *958:B1 0.00048053
6 *950:B1 4.31427e-05
7 *954:B1 0.000908931
8 *952:B1 2.32363e-05
9 *1032:X 0
10 *369:115 0.000139909
11 *369:97 0.000148927
12 *369:89 0.00146511
13 *369:66 0.00144589
14 *369:44 0.000605894
15 *369:36 0.00138703
16 *369:23 0.00130427
17 *369:12 0.00048216
18 *369:8 0.00111653
19 *369:4 0.000719398
20 *369:8 *1032:A 0
21 *369:8 *372:24 0
22 *369:8 *396:50 4.77425e-05
23 *369:12 *396:50 7.65627e-05
24 *369:66 *372:24 0
25 *369:66 *396:50 0.000209582
26 *369:89 *953:A 0
27 *369:89 *1012:RESET_B 0
28 *369:89 *372:24 9.93628e-05
29 *369:89 *373:48 1.54008e-05
30 *369:89 *397:41 0.000338876
31 *369:89 *409:10 0.000177203
32 *369:115 *1056:A 0.000235141
33 *946:A1 *369:89 0
34 *946:A2 *369:97 1.9636e-05
35 *948:A1 *369:12 0
36 *956:A1 *369:8 0.000856157
37 *956:A1 *369:66 0.000226666
38 *956:A1 *369:115 0
39 *1005:CLK *950:B1 8.00842e-05
40 *1005:CLK *369:44 0
41 *1008:D *954:B1 1.54008e-05
42 *1010:D *954:B1 0.000273004
43 *1090:A *369:36 0
44 *1090:A *369:44 0.00024217
45 *1131:A *954:B1 0.000240328
46 *1143:A *369:89 0
47 *14:10 *958:B1 0.000629689
48 *14:10 *369:44 0
49 *15:24 *950:B1 8.02102e-05
50 *21:10 *954:B1 0
51 *79:8 *369:97 0
52 *80:10 *369:89 0.000143374
53 *83:8 *369:12 0
54 *84:12 *954:B1 0.00024074
55 *85:10 *369:89 0.000176482
56 *98:10 *369:89 0.000111876
57 *104:8 *369:89 0.000305881
58 *105:16 *952:B1 4.77425e-05
59 *105:16 *954:B1 0
60 *106:20 *369:89 0
61 *112:10 *369:8 0
62 *112:10 *369:115 0.000112558
63 *114:10 *369:115 0
64 *216:34 *369:97 0
65 *242:16 *369:12 0.000766105
66 *243:10 *369:89 0
67 *244:28 *369:97 1.97059e-05
68 *246:14 *369:8 0
69 *246:14 *369:89 0
70 *254:127 *369:44 0
71 *259:66 *369:12 0
72 *260:14 *369:44 0
73 *273:24 *369:89 0
74 *278:41 *958:B1 0
75 *278:41 *369:44 0.000598187
76 *288:25 *958:B1 0
77 *288:25 *369:36 0
78 *290:8 *369:36 0
79 *290:29 *954:B1 0
80 *292:14 *958:B1 0.000143577
81 *295:10 *369:36 0.000394151
82 *305:26 *369:44 0.000181438
83 *317:14 *369:12 7.64e-05
84 *348:10 *369:36 0
*RES
1 *1032:X *369:4 20 
2 *369:4 *369:8 6.3242 
3 *369:8 *369:12 25.5414 
4 *369:12 *952:B1 40.3193 
5 *369:12 *369:23 0.5974 
6 *369:23 *954:B1 48.4563 
7 *369:23 *369:36 4.3054 
8 *369:36 *369:44 45.9225 
9 *369:44 *950:B1 40.5356 
10 *369:36 *958:B1 45.0573 
11 *369:8 *369:66 1.6171 
12 *369:66 *956:B1 20 
13 *369:66 *369:89 14.0904 
14 *369:89 *369:97 41.4703 
15 *369:97 *944:B1 20 
16 *369:89 *946:B1 20 
17 *369:4 *369:115 41.8437 
18 *369:115 *960:B1 20 
*END

*D_NET *370 0.0172077
*CONN
*I *923:B1 I *D sg13cmos5l_a21oi_1
*I *939:B1 I *D sg13cmos5l_a21oi_1
*I *942:B1 I *D sg13cmos5l_a21oi_1
*I *941:B1 I *D sg13cmos5l_a21oi_1
*I *937:B1 I *D sg13cmos5l_a21oi_1
*I *925:B1 I *D sg13cmos5l_a21oi_1
*I *927:B1 I *D sg13cmos5l_a21oi_1
*I *929:B1 I *D sg13cmos5l_a21oi_1
*I *1033:X O *D sg13cmos5l_buf_1
*CAP
1 *923:B1 0
2 *939:B1 0
3 *942:B1 0
4 *941:B1 9.32164e-05
5 *937:B1 2.8155e-05
6 *925:B1 0
7 *927:B1 0
8 *929:B1 0
9 *1033:X 0.000137716
10 *370:113 0.00101856
11 *370:100 0.00133086
12 *370:89 0.000289052
13 *370:79 0.000783625
14 *370:64 0.000794773
15 *370:51 0.00091794
16 *370:39 0.00064308
17 *370:24 0.000758442
18 *370:18 0.000652657
19 *370:12 0.000907802
20 *370:10 0.000137716
21 *937:B1 *375:53 0
22 *370:10 *1033:A 0.000340536
23 *370:18 *372:102 0.000465228
24 *370:18 *374:24 0.000207854
25 *370:51 *372:90 4.70653e-05
26 *370:51 *383:39 0
27 *370:64 *940:C 0
28 *370:64 *1042:A 0
29 *370:64 *375:66 0
30 *370:64 *383:12 0
31 *370:79 *940:C 0
32 *370:89 *373:48 8.0039e-05
33 *370:89 *380:90 8.09323e-05
34 *370:89 *381:28 0.000184058
35 *370:100 *957:D 0
36 *370:100 *373:81 0
37 *370:100 *380:49 2.25909e-05
38 *370:100 *381:10 0
39 bn9 *370:113 0
40 *923:A1 *370:113 0
41 *925:A2 *370:18 0
42 *929:A1 *370:39 0
43 *929:A2 *370:18 0
44 *951:B *370:89 0.000126509
45 *994:CLK *370:39 4.77425e-05
46 *1036:A *370:18 0.000112426
47 *1036:A *370:51 0
48 *1074:A *370:113 0.00059862
49 *1114:A *370:39 0.000531582
50 *26:10 *370:10 0
51 *26:18 *370:10 4.77425e-05
52 *26:18 *370:18 0
53 *26:18 *370:39 0.000628838
54 *69:10 *370:18 0
55 *73:12 *370:39 0.000552831
56 *77:8 *370:100 0.000825923
57 *77:8 *370:113 0
58 *100:8 *370:39 0
59 *104:24 *370:64 0
60 *104:24 *370:89 0.000112289
61 *134:31 *370:64 0.000289185
62 *193:29 *370:10 0.000448031
63 *213:36 *370:64 0
64 *223:35 *370:64 0.000175661
65 *226:22 *370:89 0.000453271
66 *227:43 *370:64 0.000398516
67 *227:43 *370:79 0.000162654
68 *227:43 *370:100 0
69 *227:43 *370:113 0
70 *254:75 *370:24 0
71 *273:16 *941:B1 0.000144768
72 *273:35 *370:79 0.000131027
73 *274:10 *370:51 0.000176235
74 *296:45 *370:113 0
75 *321:24 *370:24 0.000287672
76 *342:12 *370:39 0.00103427
*RES
1 *1033:X *370:10 42.3999 
2 *370:10 *370:12 20 
3 *370:12 *370:18 5.562 
4 *370:18 *370:24 41.339 
5 *370:24 *929:B1 20 
6 *370:24 *370:39 49.3318 
7 *370:39 *927:B1 20 
8 *370:18 *925:B1 20 
9 *370:12 *370:51 3.1312 
10 *370:51 *937:B1 20.3502 
11 *370:51 *370:64 25.459 
12 *370:64 *941:B1 40.9682 
13 *370:64 *370:79 22.0291 
14 *370:79 *370:89 43.8007 
15 *370:89 *942:B1 20 
16 *370:79 *370:100 24.1303 
17 *370:100 *939:B1 40 
18 *370:100 *370:113 30.0322 
19 *370:113 *923:B1 20 
*END

*D_NET *371 0.00213567
*CONN
*I *1096:A I *D sg13cmos5l_dlygate4sd3_1
*I *992:Q O *D sg13cmos5l_dfrbpq_1
*CAP
1 *1096:A 0.000623461
2 *992:Q 0.000220732
3 *371:8 0.000844193
4 *1096:A *996:RESET_B 0
5 *1096:A *399:52 0
6 *371:8 *372:117 0.00044728
7 *943:B *1096:A 0
8 *1024:A *1096:A 0
9 *1092:A *1096:A 0
10 *97:14 *371:8 0
11 *234:10 *1096:A 0
12 *234:10 *371:8 0
13 *254:145 *1096:A 0
14 *262:8 *1096:A 0
15 *262:15 *1096:A 0
*RES
1 *992:Q *371:8 42.575 
2 *371:8 *1096:A 45.4596 
*END

*D_NET *372 0.0206637
*CONN
*I *933:B1 I *D sg13cmos5l_a21oi_1
*I *935:B1 I *D sg13cmos5l_a21oi_1
*I *931:B1 I *D sg13cmos5l_a21oi_1
*I *1033:A I *D sg13cmos5l_buf_1
*I *948:B1 I *D sg13cmos5l_a21oi_1
*I *1032:A I *D sg13cmos5l_buf_1
*I *1034:X O *D sg13cmos5l_buf_1
*CAP
1 *933:B1 0
2 *935:B1 0
3 *931:B1 0
4 *1033:A 0.000247958
5 *948:B1 0.000142418
6 *1032:A 0.000560845
7 *1034:X 0.000993035
8 *372:117 0.000694749
9 *372:102 0.00119898
10 *372:90 0.000631029
11 *372:75 0.000851846
12 *372:73 0.00088904
13 *372:67 0.000753357
14 *372:61 0.000399307
15 *372:24 0.00139358
16 *372:12 0.00191028
17 *372:12 *1198:A 0.000500981
18 *372:12 *407:16 0.000274627
19 *372:24 *396:50 0.000241847
20 *372:73 *938:C 0
21 *372:73 *938:D 0.00043574
22 *372:75 *383:39 0.000289871
23 *372:75 *383:105 0.000965835
24 *372:90 *383:39 4.70653e-05
25 *372:117 *1097:A 0
26 bn5 *372:102 0.000183758
27 *773:A *948:B1 0.000499471
28 *773:A *372:24 0.000234311
29 *925:A2 *372:102 0.00014782
30 *931:A2 *372:102 0
31 *943:B *372:73 0
32 *995:CLK *372:117 0
33 *1014:CLK *372:24 0.00030268
34 *1070:A *372:73 0.000209605
35 *1095:A *372:12 0
36 *7:30 *372:117 0.00167556
37 *26:18 *1033:A 0.000144736
38 *73:8 *372:102 0.000144767
39 *73:8 *372:117 0.000160447
40 *74:10 *372:117 4.74263e-05
41 *81:12 *948:B1 0
42 *87:12 *1032:A 0
43 *98:10 *372:24 0.000111876
44 *101:12 *372:102 0
45 *101:12 *372:117 0
46 *103:22 *372:117 0
47 *105:16 *948:B1 1.9636e-05
48 *105:24 *372:67 0
49 *112:10 *1032:A 0
50 *202:54 *372:67 0
51 *216:34 *372:12 7.91362e-05
52 *216:34 *372:61 7.92837e-05
53 *234:10 *372:117 0
54 *242:16 *1032:A 0
55 *245:12 *372:73 1.54008e-05
56 *245:28 *372:12 1.54008e-05
57 *246:14 *1032:A 0
58 *246:14 *372:12 0
59 *254:75 *372:102 0
60 *259:66 *1032:A 0.000128123
61 *259:66 *372:24 0
62 *262:19 *372:117 0
63 *300:39 *948:B1 0.000479035
64 *300:39 *372:24 0.000662166
65 *302:14 *1033:A 0
66 *302:14 *372:75 0
67 *305:26 *372:24 0
68 *310:14 *372:75 0
69 *367:10 *372:12 0.000501211
70 *369:8 *1032:A 0
71 *369:8 *372:24 0
72 *369:66 *372:24 0
73 *369:89 *372:24 9.93628e-05
74 *370:10 *1033:A 0.000340536
75 *370:18 *372:102 0.000465228
76 *370:51 *372:90 4.70653e-05
77 *371:8 *372:117 0.00044728
*RES
1 *1034:X *372:12 49.6408 
2 *372:12 *372:24 49.2494 
3 *372:24 *1032:A 45.5105 
4 *372:12 *948:B1 42.8093 
5 *1034:X *372:61 40.5356 
6 *372:61 *372:67 43.7801 
7 *372:67 *372:73 44.2127 
8 *372:73 *372:75 6.0358 
9 *372:75 *1033:A 42.8016 
10 *372:75 *372:90 21.1845 
11 *372:90 *372:102 45.2942 
12 *372:102 *931:B1 20 
13 *372:102 *372:117 49.7026 
14 *372:117 *935:B1 20 
15 *372:90 *933:B1 20 
*END

*D_NET *373 0.00730979
*CONN
*I *947:D I *D sg13cmos5l_nand4_1
*I *957:D I *D sg13cmos5l_nand4_1
*I *943:D I *D sg13cmos5l_nand4_1
*I *951:D I *D sg13cmos5l_nand4_1
*I *953:D I *D sg13cmos5l_nand4_1
*I *949:D I *D sg13cmos5l_nand4_1
*I *945:D I *D sg13cmos5l_nand4_1
*I *955:D I *D sg13cmos5l_nand4_1
*I *1035:X O *D sg13cmos5l_buf_1
*CAP
1 *947:D 0
2 *957:D 0.000127583
3 *943:D 2.70094e-05
4 *951:D 0.000156984
5 *953:D 0
6 *949:D 0
7 *945:D 3.10612e-05
8 *955:D 3.48835e-05
9 *1035:X 0.000210332
10 *373:81 0.000343629
11 *373:66 0.000440691
12 *373:54 0.000162222
13 *373:48 0.000477749
14 *373:42 0.000422599
15 *373:36 0.000377155
16 *373:25 0.000285667
17 *373:14 0.000284642
18 *373:8 0.000380898
19 *943:D *375:68 4.77425e-05
20 *943:D *375:86 1.54008e-05
21 *945:D *375:66 1.54008e-05
22 *951:D *376:25 1.54008e-05
23 *951:D *376:36 3.23417e-05
24 *951:D *380:49 4.86123e-05
25 *955:D *955:C 1.54008e-05
26 *957:D *957:C 8.85546e-06
27 *373:8 *1042:A 3.23417e-05
28 *373:8 *375:12 6.46834e-05
29 *373:8 *375:22 1.54008e-05
30 *373:14 *1042:A 4.75613e-05
31 *373:14 *375:22 4.77425e-05
32 *373:14 *380:10 0
33 *373:25 *1042:A 0
34 *373:25 *375:53 0.000130618
35 *373:36 *375:53 7.5374e-05
36 *373:36 *383:12 0
37 *373:48 *953:C 0
38 *373:48 *376:25 0
39 *373:81 *375:66 0.000454377
40 *373:81 *380:49 0.00033992
41 *941:A1 *951:D 7.88784e-05
42 *946:A2 *373:48 0
43 *78:18 *373:48 0.000175513
44 *104:24 *951:D 0.000207777
45 *104:24 *373:48 0
46 *106:20 *373:54 2.21849e-05
47 *198:39 *373:8 0
48 *210:24 *373:54 0.00012778
49 *210:37 *373:42 0.000180616
50 *213:36 *373:8 0
51 *213:36 *373:14 0.000180726
52 *213:36 *373:25 0.00012816
53 *223:35 *945:D 4.77425e-05
54 *226:10 *373:8 4.71556e-05
55 *227:16 *373:14 7.54613e-05
56 *227:16 *373:25 0.000321393
57 *227:16 *373:36 0.000323927
58 *227:33 *373:36 7.68089e-05
59 *227:33 *373:42 4.99491e-05
60 *227:43 *957:D 0
61 *227:43 *373:81 0
62 *369:89 *373:48 1.54008e-05
63 *370:89 *373:48 8.0039e-05
64 *370:100 *957:D 0
65 *370:100 *373:81 0
*RES
1 *1035:X *373:8 22.2145 
2 *373:8 *373:14 21.9055 
3 *373:14 *955:D 40.3193 
4 *373:14 *373:25 1.5862 
5 *373:25 *945:D 40.3193 
6 *373:25 *373:36 2.0806 
7 *373:36 *373:42 41.1845 
8 *373:42 *373:48 23.0488 
9 *373:48 *373:54 41.5862 
10 *373:54 *949:D 20 
11 *373:48 *953:D 20 
12 *373:36 *373:66 0.8446 
13 *373:66 *951:D 41.7201 
14 *373:66 *373:81 2.8634 
15 *373:81 *943:D 40.3193 
16 *373:81 *957:D 41.1201 
17 *373:8 *947:D 20 
*END

*D_NET *374 0.00730256
*CONN
*I *928:D I *D sg13cmos5l_nand4_1
*I *930:D I *D sg13cmos5l_nand4_1
*I *934:D I *D sg13cmos5l_nand4_1
*I *938:D I *D sg13cmos5l_nand4_1
*I *932:D I *D sg13cmos5l_nand4_1
*I *924:D I *D sg13cmos5l_nand4_1
*I *926:D I *D sg13cmos5l_nand4_1
*I *936:D I *D sg13cmos5l_nand4_1
*I *1036:X O *D sg13cmos5l_buf_1
*CAP
1 *928:D 0
2 *930:D 0
3 *934:D 0
4 *938:D 0.000678374
5 *932:D 3.51088e-05
6 *924:D 0
7 *926:D 6.73009e-05
8 *936:D 0.000279599
9 *1036:X 0.000469307
10 *374:52 0.000713483
11 *374:50 0.000175044
12 *374:48 0.00025016
13 *374:37 0.000158451
14 *374:26 0.000150636
15 *374:24 0.000189708
16 *926:D *377:59 0.000287672
17 *926:D *377:70 7.51285e-05
18 *932:D *377:33 0.000130532
19 *938:D *938:C 1.54008e-05
20 *938:D *377:33 5.30319e-05
21 *938:D *383:105 0
22 *938:D *399:52 0
23 *938:D *401:68 0
24 *374:24 *928:C 4.77425e-05
25 *374:37 *930:C 7.66466e-05
26 *374:37 *377:70 0.000375029
27 *374:48 *930:C 0.000265488
28 *374:50 *930:C 4.77425e-05
29 *374:50 *377:33 1.54008e-05
30 *929:A2 *374:24 0
31 *937:A2 *936:D 0
32 *943:B *938:D 0
33 *1036:A *936:D 0
34 *1133:A *374:50 0.000199769
35 *202:39 *926:D 0.000341119
36 *202:39 *374:37 0.000451596
37 *202:39 *374:48 0.000234885
38 *202:54 *374:48 0.000106064
39 *210:37 *932:D 7.65602e-05
40 *210:37 *938:D 0.000128493
41 *213:36 *936:D 0
42 *223:35 *936:D 1.54008e-05
43 *264:8 *938:D 0
44 *343:12 *374:50 0.000111928
45 *344:8 *938:D 0.000436166
46 *355:32 *932:D 0
47 *370:18 *374:24 0.000207854
48 *372:73 *938:D 0.00043574
*RES
1 *1036:X *936:D 42.5647 
2 *1036:X *374:24 21.9982 
3 *374:24 *374:26 20 
4 *374:26 *926:D 41.5862 
5 *374:26 *374:37 2.0806 
6 *374:37 *924:D 40 
7 *374:37 *374:48 21.5862 
8 *374:48 *374:50 1.8334 
9 *374:50 *374:52 20 
10 *374:52 *932:D 40.5974 
11 *374:52 *938:D 47.6632 
12 *374:50 *934:D 20 
13 *374:48 *930:D 20 
14 *374:24 *928:D 20 
*END

*D_NET *375 0.00993166
*CONN
*I *938:C I *D sg13cmos5l_nand4_1
*I *940:C I *D sg13cmos5l_nand4_1
*I *943:C I *D sg13cmos5l_nand4_1
*I *949:C I *D sg13cmos5l_nand4_1
*I *945:C I *D sg13cmos5l_nand4_1
*I *955:C I *D sg13cmos5l_nand4_1
*I *947:C I *D sg13cmos5l_nand4_1
*I *921:C I *D sg13cmos5l_nand3_1
*I *1037:X O *D sg13cmos5l_buf_1
*CAP
1 *938:C 0.000206858
2 *940:C 0.000367298
3 *943:C 0
4 *949:C 0
5 *945:C 0
6 *955:C 4.26674e-05
7 *947:C 0
8 *921:C 0
9 *1037:X 6.24205e-05
10 *375:100 0.000670974
11 *375:86 0.000637688
12 *375:68 0.000680087
13 *375:66 0.000464504
14 *375:53 0.000468636
15 *375:36 0.000294217
16 *375:22 0.000270404
17 *375:12 0.000309909
18 *375:8 0.000210124
19 *938:C *938:A 0
20 *940:C *938:A 0
21 *940:C *940:A 0
22 *940:C *377:25 0
23 *375:8 *1037:A 0
24 *375:8 *1042:A 0.00012816
25 *375:22 *921:B 4.77425e-05
26 *375:22 *1037:A 0.000394151
27 *375:22 *1042:A 0.000143571
28 *375:22 *380:6 0
29 *375:36 *1042:A 0.000319447
30 *375:53 *1042:A 0.000130532
31 *375:53 *383:12 5.30319e-05
32 *375:66 *383:12 0.000398632
33 *375:86 *949:A 4.75151e-05
34 *375:86 *953:A 0
35 *375:86 *957:C 0
36 *937:A2 *375:53 0
37 *937:B1 *375:53 0
38 *938:B *938:C 0.000144521
39 *938:D *938:C 1.54008e-05
40 *941:A1 *375:86 4.77425e-05
41 *943:B *375:68 6.46834e-05
42 *943:B *375:86 4.77425e-05
43 *943:B *375:100 0.000128542
44 *943:D *375:68 4.77425e-05
45 *943:D *375:86 1.54008e-05
46 *945:B *375:66 8.00842e-05
47 *945:D *375:66 1.54008e-05
48 *955:B *955:C 1.54008e-05
49 *955:D *955:C 1.54008e-05
50 *198:39 *375:12 8.00842e-05
51 *198:39 *375:22 4.77425e-05
52 *206:16 *375:22 0.000394151
53 *216:34 *375:86 0
54 *219:30 *375:86 0.000129197
55 *219:43 *940:C 4.75252e-05
56 *223:35 *375:22 0
57 *223:35 *375:53 8.0039e-05
58 *223:35 *375:66 0
59 *226:10 *375:8 0
60 *226:10 *375:36 0
61 *227:43 *375:66 0.000669606
62 *238:8 *375:86 7.97712e-05
63 *244:14 *375:22 4.77425e-05
64 *244:14 *375:53 0
65 *273:35 *938:C 0.000344504
66 *273:35 *940:C 0
67 *296:18 *375:86 0.000236472
68 *298:37 *375:8 0
69 *298:37 *375:36 0
70 *370:64 *940:C 0
71 *370:64 *375:66 0
72 *370:79 *940:C 0
73 *372:73 *938:C 0
74 *373:8 *375:12 6.46834e-05
75 *373:8 *375:22 1.54008e-05
76 *373:14 *375:22 4.77425e-05
77 *373:25 *375:53 0.000130618
78 *373:36 *375:53 7.5374e-05
79 *373:81 *375:66 0.000454377
*RES
1 *1037:X *375:8 40.8446 
2 *375:8 *375:12 20.5356 
3 *375:12 *375:22 43.7698 
4 *375:22 *921:C 20 
5 *375:12 *947:C 20 
6 *375:8 *375:36 21.5862 
7 *375:36 *955:C 20.5356 
8 *375:36 *375:53 42.2248 
9 *375:53 *945:C 20 
10 *375:53 *375:66 45.0882 
11 *375:66 *375:68 0.5356 
12 *375:68 *375:86 46.3448 
13 *375:86 *949:C 20 
14 *375:68 *943:C 20 
15 *375:66 *375:100 20.9682 
16 *375:100 *940:C 43.399 
17 *375:100 *938:C 42.5544 
*END

*D_NET *376 0.00382635
*CONN
*I *957:C I *D sg13cmos5l_nand4_1
*I *959:C I *D sg13cmos5l_nand4_1
*I *951:C I *D sg13cmos5l_nand4_1
*I *953:C I *D sg13cmos5l_nand4_1
*I *1038:X O *D sg13cmos5l_buf_1
*CAP
1 *957:C 0.00029015
2 *959:C 2.60565e-05
3 *951:C 0
4 *953:C 0.000245409
5 *1038:X 0.00017563
6 *376:36 0.000425064
7 *376:25 0.000182639
8 *376:10 0.000319191
9 *376:8 0.00017563
10 *953:C *953:A 0
11 *957:C *381:24 0.00016053
12 *957:C *381:28 0.000130778
13 *376:25 *953:A 7.98669e-05
14 *376:36 *381:28 0.000238276
15 *938:B *957:C 3.24022e-05
16 *942:A1 *376:36 0.000293681
17 *951:B *376:36 8.76915e-05
18 *951:D *376:25 1.54008e-05
19 *951:D *376:36 3.23417e-05
20 *957:D *957:C 8.85546e-06
21 *13:22 *376:8 0
22 *78:18 *953:C 0.000152411
23 *104:16 *376:8 7.68089e-05
24 *104:24 *376:25 0
25 *134:10 *376:8 7.57402e-05
26 *216:34 *957:C 0.000214248
27 *219:30 *959:C 4.77425e-05
28 *226:22 *959:C 4.77425e-05
29 *245:12 *957:C 0
30 *296:18 *957:C 0
31 *296:18 *376:8 0.000292059
32 *373:48 *953:C 0
33 *373:48 *376:25 0
34 *375:86 *957:C 0
*RES
1 *1038:X *376:8 42.0806 
2 *376:8 *376:10 20 
3 *376:10 *953:C 22.4205 
4 *376:10 *376:25 0.7519 
5 *376:25 *951:C 20 
6 *376:25 *376:36 21.9055 
7 *376:36 *959:C 40.3193 
8 *376:36 *957:C 43.4093 
*END

*D_NET *377 0.0108982
*CONN
*I *1038:A I *D sg13cmos5l_buf_1
*I *926:C I *D sg13cmos5l_nand4_1
*I *930:C I *D sg13cmos5l_nand4_1
*I *924:C I *D sg13cmos5l_nand4_1
*I *928:C I *D sg13cmos5l_nand4_1
*I *932:C I *D sg13cmos5l_nand4_1
*I *934:C I *D sg13cmos5l_nand4_1
*I *1037:A I *D sg13cmos5l_buf_1
*I *1039:X O *D sg13cmos5l_buf_1
*CAP
1 *1038:A 0.000124789
2 *926:C 3.07186e-05
3 *930:C 9.27445e-05
4 *924:C 3.33756e-05
5 *928:C 2.84713e-05
6 *932:C 0
7 *934:C 0
8 *1037:A 0.000588966
9 *1039:X 0
10 *377:70 0.000211231
11 *377:59 0.000192882
12 *377:55 0.000685923
13 *377:40 0.000604631
14 *377:33 9.39038e-05
15 *377:25 0.00111111
16 *377:6 0.00157744
17 *377:4 0.000124789
18 *930:C *934:A 0.000128991
19 *930:C *383:54 0.00010588
20 *930:C *383:81 0.000128248
21 *1037:A *1042:A 0
22 *377:25 *383:12 8.00842e-05
23 *377:33 *383:105 0
24 *377:59 *926:A 0.00023464
25 *377:59 *383:56 0.000128247
26 *377:70 *383:54 0.000129186
27 *377:70 *383:56 0.000320563
28 *924:B *924:C 1.54008e-05
29 *926:B *377:55 0.00011167
30 *926:D *377:59 0.000287672
31 *926:D *377:70 7.51285e-05
32 *930:B *930:C 4.77425e-05
33 *932:B *377:25 0.00040294
34 *932:B *377:40 3.24568e-05
35 *932:B *377:55 3.23472e-05
36 *932:D *377:33 0.000130532
37 *938:D *377:33 5.30319e-05
38 *940:C *377:25 0
39 *941:A2 *377:25 0
40 *942:A2 *377:25 0.000110829
41 *945:B *377:25 0
42 *946:A2 *1038:A 8.00842e-05
43 *951:B *377:25 0.000130778
44 *981:D *1037:A 0
45 *1071:A *377:25 8.00842e-05
46 *8:14 *926:C 0
47 *102:22 *377:55 0
48 *104:24 *377:25 0
49 *134:31 *377:25 0.000144089
50 *198:54 *928:C 1.54008e-05
51 *206:16 *1037:A 0
52 *206:16 *377:25 0
53 *226:22 *1037:A 0
54 *226:22 *377:25 0
55 *258:51 *377:33 0.000183809
56 *258:51 *377:55 0
57 *343:12 *377:25 0
58 *355:32 *377:55 0.000985171
59 *374:24 *928:C 4.77425e-05
60 *374:37 *930:C 7.66466e-05
61 *374:37 *377:70 0.000375029
62 *374:48 *930:C 0.000265488
63 *374:50 *930:C 4.77425e-05
64 *374:50 *377:33 1.54008e-05
65 *375:8 *1037:A 0
66 *375:22 *1037:A 0.000394151
*RES
1 *1039:X *377:4 20 
2 *377:4 *377:6 20 
3 *377:6 *1037:A 45.6753 
4 *377:6 *377:25 29.1773 
5 *377:25 *377:33 41.4111 
6 *377:33 *934:C 20 
7 *377:25 *377:40 0.3193 
8 *377:40 *932:C 20 
9 *377:40 *377:55 46.2727 
10 *377:55 *377:59 21.5862 
11 *377:59 *928:C 40.3193 
12 *377:59 *377:70 2.0806 
13 *377:70 *924:C 40.3193 
14 *377:70 *930:C 41.9055 
15 *377:55 *926:C 20.3193 
16 *377:4 *1038:A 21.3493 
*END

*D_NET *378 0.0164849
*CONN
*I *848:A_N I *D sg13cmos5l_nand2b_1
*I *868:A1 I *D sg13cmos5l_o21ai_1
*I *853:B I *D sg13cmos5l_nand2_1
*I *910:A1 I *D sg13cmos5l_o21ai_1
*I *897:A1 I *D sg13cmos5l_o21ai_1
*I *914:A1 I *D sg13cmos5l_o21ai_1
*I *906:A1 I *D sg13cmos5l_o21ai_1
*I *902:A1 I *D sg13cmos5l_o21ai_1
*I *1040:X O *D sg13cmos5l_buf_1
*CAP
1 *848:A_N 0.000119794
2 *868:A1 0.000328208
3 *853:B 8.10057e-05
4 *910:A1 2.9797e-05
5 *897:A1 0.000241964
6 *914:A1 0.000153502
7 *906:A1 0.000286173
8 *902:A1 0
9 *1040:X 0.000122468
10 *378:62 0.000645352
11 *378:49 0.000938076
12 *378:43 0.000828486
13 *378:32 0.000687734
14 *378:26 0.00125141
15 *378:24 0.00120755
16 *378:22 0.000432147
17 *378:8 0.000674409
18 *848:A_N *384:52 0
19 *868:A1 *384:71 4.85092e-05
20 *868:A1 *388:57 2.25909e-05
21 *906:A1 *394:53 0
22 *906:A1 *433:10 0.00012926
23 *914:A1 *914:B1 0
24 *378:8 *437:20 0
25 *378:8 *449:8 0
26 *378:22 *437:20 0
27 *378:26 *384:71 0
28 *378:26 *387:44 0.00103275
29 *378:26 *387:57 0.000483185
30 *378:26 *388:57 0
31 *378:32 *387:44 0.000713183
32 *378:43 *386:35 0
33 *378:43 *424:14 0.000553246
34 *378:62 *433:10 0.00112486
35 *794:A *848:A_N 0
36 *794:A *378:8 2.21754e-05
37 *857:B1 *378:32 0.000340704
38 *860:A1 *378:32 0.000287204
39 *868:A2 *868:A1 7.31538e-06
40 *869:A2 *848:A_N 1.54008e-05
41 *869:A2 *378:22 0.000271745
42 *897:A2 *897:A1 0.000176608
43 *901:B *897:A1 0
44 *902:A2 *378:32 1.54008e-05
45 *902:A2 *378:43 3.23417e-05
46 *910:A2 *910:A1 4.77425e-05
47 *911:A1 *910:A1 0
48 *913:B *910:A1 0
49 *914:A2 *914:A1 1.54008e-05
50 *1151:A *914:A1 0
51 *1202:A *378:22 8.00842e-05
52 *4:8 *868:A1 0.000136655
53 *102:12 *378:22 0.00018211
54 *196:10 *897:A1 0.000340288
55 *196:10 *906:A1 0.000611189
56 *196:10 *378:62 0.00125504
57 *198:31 *378:22 0
58 *207:10 *897:A1 0
59 *213:24 *378:26 0
60 *214:16 *906:A1 0.000176441
61 *217:8 *378:43 7.65602e-05
62 *219:54 *853:B 0
63 *220:8 *378:43 0
64 *302:14 *868:A1 0
65 *302:28 *378:22 0.000182268
66 *307:32 *378:22 0
67 *310:45 *868:A1 7.65602e-05
*RES
1 *1040:X *378:8 21.1021 
2 *378:8 *378:22 44.9646 
3 *378:22 *378:24 20 
4 *378:24 *378:26 9.7438 
5 *378:26 *378:32 24.5011 
6 *378:32 *902:A1 20 
7 *378:32 *378:43 24.1303 
8 *378:43 *378:49 44.8616 
9 *378:49 *906:A1 44.0067 
10 *378:49 *378:62 5.7886 
11 *378:62 *914:A1 41.1845 
12 *378:62 *897:A1 42.7707 
13 *378:43 *910:A1 40.3193 
14 *378:26 *853:B 40.4703 
15 *378:24 *868:A1 43.0668 
16 *378:8 *848:A_N 21.3493 
*END

*D_NET *379 0.00684598
*CONN
*I *881:A1 I *D sg13cmos5l_o21ai_1
*I *892:A1 I *D sg13cmos5l_o21ai_1
*I *887:A1 I *D sg13cmos5l_o21ai_1
*I *873:A1 I *D sg13cmos5l_o21ai_1
*I *1041:X O *D sg13cmos5l_buf_1
*CAP
1 *881:A1 0
2 *892:A1 0
3 *887:A1 0
4 *873:A1 0
5 *1041:X 0.000132825
6 *379:51 0.000389277
7 *379:36 0.000804541
8 *379:21 0.0010916
9 *379:15 0.000798927
10 *379:6 0.000255416
11 *379:6 *387:91 7.89542e-05
12 *379:21 *413:10 0
13 *379:36 *884:B1 0
14 *379:36 *1192:A 0.000144899
15 *379:36 *394:92 0
16 *379:36 *422:10 0
17 *379:51 *873:B1 0
18 *873:A2 *379:6 4.77425e-05
19 *873:A2 *379:15 1.54008e-05
20 *887:A2 *379:21 0.000144898
21 *887:A2 *379:36 1.54556e-05
22 *892:A2 *379:36 0.000274578
23 *986:CLK *379:36 1.54008e-05
24 *1148:A *379:21 0
25 *1148:A *379:36 0
26 *4:12 *379:51 0.000146301
27 *7:18 *379:51 0.000666284
28 *97:14 *379:36 0
29 *101:12 *379:36 0.001086
30 *199:10 *379:21 7.62277e-05
31 *202:39 *379:21 0
32 *202:39 *379:51 1.55212e-05
33 *265:12 *379:51 0.000131027
34 *303:14 *379:36 0
35 *303:26 *379:36 0
36 *314:24 *379:6 0.000207854
37 *314:24 *379:15 0.000160801
38 *314:24 *379:36 0
39 *321:24 *379:21 0
40 *342:18 *379:51 0.000146051
*RES
1 *1041:X *379:6 21.4008 
2 *379:6 *873:A1 20 
3 *379:6 *379:15 21.1845 
4 *379:15 *379:21 22.7707 
5 *379:21 *887:A1 20 
6 *379:21 *379:36 49.1464 
7 *379:36 *892:A1 20 
8 *379:15 *379:51 44.8513 
9 *379:51 *881:A1 40 
*END

*D_NET *380 0.00925335
*CONN
*I *947:A I *D sg13cmos5l_nand4_1
*I *949:A I *D sg13cmos5l_nand4_1
*I *938:A I *D sg13cmos5l_nand4_1
*I *940:A I *D sg13cmos5l_nand4_1
*I *943:A I *D sg13cmos5l_nand4_1
*I *945:A I *D sg13cmos5l_nand4_1
*I *955:A I *D sg13cmos5l_nand4_1
*I *921:B I *D sg13cmos5l_nand3_1
*I *1042:X O *D sg13cmos5l_buf_1
*CAP
1 *947:A 2.70684e-05
2 *949:A 0.000162616
3 *938:A 0.00024365
4 *940:A 0.000168502
5 *943:A 5.63155e-05
6 *945:A 3.35878e-05
7 *955:A 3.01675e-05
8 *921:B 0.000128069
9 *1042:X 8.14336e-05
10 *380:90 0.000439021
11 *380:60 0.000642624
12 *380:49 0.000427764
13 *380:43 0.000559748
14 *380:32 0.000236686
15 *380:21 0.000113336
16 *380:10 0.000226856
17 *380:6 0.000184852
18 *921:B *385:85 1.54008e-05
19 *949:A *953:A 0
20 *938:B *938:A 4.77425e-05
21 *938:C *938:A 0
22 *940:C *938:A 0
23 *940:C *940:A 0
24 *943:B *943:A 4.77425e-05
25 *943:B *380:60 0.000338113
26 *946:A2 *945:A 4.72458e-05
27 *951:D *380:49 4.86123e-05
28 *9:14 *938:A 0.000553671
29 *9:14 *940:A 0.000287204
30 *77:8 *380:90 0.000290036
31 *107:14 *380:90 0.000211669
32 *202:54 *380:90 0.000376788
33 *219:43 *940:A 4.76977e-05
34 *219:43 *380:60 0
35 *226:22 *380:10 0.000182624
36 *226:22 *380:21 0.000106992
37 *226:22 *380:32 0.000322676
38 *226:22 *380:43 0.000486673
39 *226:22 *380:90 0.000269801
40 *227:16 *921:B 7.93152e-05
41 *227:16 *380:10 0.000128406
42 *227:16 *380:21 0.00012816
43 *227:16 *380:32 0.000345949
44 *227:16 *380:43 0.000185245
45 *227:33 *380:43 5.42181e-05
46 *238:8 *943:A 1.54008e-05
47 *240:10 *947:A 4.71685e-05
48 *240:10 *380:6 0.000111173
49 *244:14 *955:A 4.72458e-05
50 *246:14 *949:A 0
51 *273:6 *380:60 0
52 *273:16 *380:49 0.000129383
53 *273:35 *938:A 0
54 *370:89 *380:90 8.09323e-05
55 *370:100 *380:49 2.25909e-05
56 *373:14 *380:10 0
57 *373:81 *380:49 0.00033992
58 *375:22 *921:B 4.77425e-05
59 *375:22 *380:6 0
60 *375:86 *949:A 4.75151e-05
*RES
1 *1042:X *380:6 20.7519 
2 *380:6 *380:10 21.0918 
3 *380:10 *921:B 41.1845 
4 *380:10 *380:21 0.5974 
5 *380:21 *955:A 40.3193 
6 *380:21 *380:32 1.5862 
7 *380:32 *945:A 40.3193 
8 *380:32 *380:43 2.3278 
9 *380:43 *380:49 22.0909 
10 *380:49 *943:A 20.5356 
11 *380:49 *380:60 22.266 
12 *380:60 *940:A 41.8746 
13 *380:60 *938:A 43.1106 
14 *380:43 *380:90 44.0685 
15 *380:90 *949:A 41.4008 
16 *380:6 *947:A 20.3193 
*END

*D_NET *381 0.00399029
*CONN
*I *957:A I *D sg13cmos5l_nand4_1
*I *959:A I *D sg13cmos5l_nand4_1
*I *951:A I *D sg13cmos5l_nand4_1
*I *953:A I *D sg13cmos5l_nand4_1
*I *1043:X O *D sg13cmos5l_buf_1
*CAP
1 *957:A 0
2 *959:A 0
3 *951:A 0
4 *953:A 0.000412529
5 *1043:X 0.000164725
6 *381:28 0.000501894
7 *381:24 0.000322161
8 *381:18 0.000346826
9 *381:10 0.000278755
10 *938:B *381:18 0.000117863
11 *939:A2 *381:10 0.00017635
12 *939:A2 *381:18 0
13 *941:A1 *953:A 0.000112426
14 *949:A *953:A 0
15 *951:B *953:A 4.77425e-05
16 *953:C *953:A 0
17 *957:C *381:24 0.00016053
18 *957:C *381:28 0.000130778
19 *77:8 *381:24 0
20 *77:8 *381:28 0
21 *216:34 *381:18 3.23417e-05
22 *216:34 *381:24 1.54008e-05
23 *227:43 *381:10 0.000181192
24 *243:10 *953:A 1.54008e-05
25 *245:28 *381:18 0.000150128
26 *245:28 *381:24 0.000144691
27 *296:18 *381:24 0
28 *296:45 *381:24 0
29 *354:36 *381:10 0.00017635
30 *369:89 *953:A 0
31 *370:89 *381:28 0.000184058
32 *370:100 *381:10 0
33 *375:86 *953:A 0
34 *376:25 *953:A 7.98669e-05
35 *376:36 *381:28 0.000238276
*RES
1 *1043:X *381:10 42.0291 
2 *381:10 *381:18 21.4214 
3 *381:18 *381:24 22.5544 
4 *381:24 *381:28 21.5862 
5 *381:28 *953:A 24.0376 
6 *381:28 *951:A 20 
7 *381:24 *959:A 40 
8 *381:18 *957:A 20 
*END

*D_NET *382 0.00109591
*CONN
*I *1103:A I *D sg13cmos5l_dlygate4sd3_1
*I *993:Q O *D sg13cmos5l_dfrbpq_1
*CAP
1 *1103:A 2.83961e-05
2 *993:Q 0.000431492
3 *382:8 0.000459888
4 bn3 *382:8 0
5 *73:12 *382:8 0.000128334
6 *97:14 *382:8 0
7 *261:72 *1103:A 4.7803e-05
8 *342:12 *382:8 0
*RES
1 *993:Q *382:8 44.5526 
2 *382:8 *1103:A 40.3193 
*END

*D_NET *383 0.0131438
*CONN
*I *1043:A I *D sg13cmos5l_buf_1
*I *934:A I *D sg13cmos5l_nand4_1
*I *930:A I *D sg13cmos5l_nand4_1
*I *924:A I *D sg13cmos5l_nand4_1
*I *928:A I *D sg13cmos5l_nand4_1
*I *926:A I *D sg13cmos5l_nand4_1
*I *932:A I *D sg13cmos5l_nand4_1
*I *1042:A I *D sg13cmos5l_buf_1
*I *1044:X O *D sg13cmos5l_buf_1
*CAP
1 *1043:A 0
2 *934:A 0.000188459
3 *930:A 0
4 *924:A 0
5 *928:A 0
6 *926:A 0.00011637
7 *932:A 0
8 *1042:A 0.00051865
9 *1044:X 0.000260386
10 *383:105 0.00084071
11 *383:81 0.000211237
12 *383:56 0.000280522
13 *383:54 0.000214584
14 *383:52 0.000176312
15 *383:43 0.00023745
16 *383:39 0.00159899
17 *383:12 0.00140297
18 *926:A *401:68 0
19 *1042:A *405:35 4.77425e-05
20 *383:56 *401:68 0
21 *383:105 *1101:A 0.000209664
22 *930:C *934:A 0.000128991
23 *930:C *383:54 0.00010588
24 *930:C *383:81 0.000128248
25 *932:B *383:43 0.000177241
26 *933:A2 *383:43 0
27 *938:D *383:105 0
28 *945:B *383:39 0
29 *1000:D *383:105 0
30 *1037:A *1042:A 0
31 *103:14 *383:105 0
32 *104:24 *1042:A 0
33 *104:24 *383:12 0
34 *134:31 *383:39 0.000336767
35 *186:41 *383:52 0
36 *186:47 *934:A 0.000319854
37 *186:47 *383:54 0.000182387
38 *186:47 *383:81 0.000106258
39 *193:29 *383:39 0.000128654
40 *198:54 *926:A 0.000183552
41 *198:54 *383:56 5.30319e-05
42 *213:36 *1042:A 0.000288097
43 *223:35 *383:39 0.000207931
44 *234:10 *934:A 0.000144025
45 *258:51 *383:39 0
46 *258:51 *383:105 0
47 *264:8 *383:105 0
48 *274:10 *383:39 0.000176235
49 *298:10 *934:A 0.000111027
50 *310:14 *383:105 0
51 *343:12 *383:52 0.000111596
52 *354:36 *383:105 0.000501211
53 *370:51 *383:39 0
54 *370:64 *1042:A 0
55 *370:64 *383:12 0
56 *372:75 *383:39 0.000289871
57 *372:75 *383:105 0.000965835
58 *372:90 *383:39 4.70653e-05
59 *373:8 *1042:A 3.23417e-05
60 *373:14 *1042:A 4.75613e-05
61 *373:25 *1042:A 0
62 *373:36 *383:12 0
63 *375:8 *1042:A 0.00012816
64 *375:22 *1042:A 0.000143571
65 *375:36 *1042:A 0.000319447
66 *375:53 *1042:A 0.000130532
67 *375:53 *383:12 5.30319e-05
68 *375:66 *383:12 0.000398632
69 *377:25 *383:12 8.00842e-05
70 *377:33 *383:105 0
71 *377:59 *926:A 0.00023464
72 *377:59 *383:56 0.000128247
73 *377:70 *383:54 0.000129186
74 *377:70 *383:56 0.000320563
*RES
1 *1044:X *383:12 42.9355 
2 *383:12 *1042:A 46.386 
3 *383:12 *383:39 46.5199 
4 *383:39 *383:43 21.4008 
5 *383:43 *932:A 20 
6 *383:43 *383:52 20.9682 
7 *383:52 *383:54 1.0918 
8 *383:54 *383:56 2.0806 
9 *383:56 *926:A 41.5862 
10 *383:56 *928:A 40 
11 *383:54 *924:A 40 
12 *383:52 *383:81 0.5974 
13 *383:81 *930:A 40 
14 *383:81 *934:A 42.5544 
15 *383:39 *383:105 30.1249 
16 *383:105 *1043:A 20 
*END

*D_NET *384 0.0167142
*CONN
*I *874:B I *D sg13cmos5l_nor2_1
*I *883:B I *D sg13cmos5l_or4_1
*I *870:A I *D sg13cmos5l_nor2_1
*I *915:A1 I *D sg13cmos5l_o21ai_1
*I *859:B I *D sg13cmos5l_nor3_1
*I *799:B I *D sg13cmos5l_nand2_1
*I *803:A2 I *D sg13cmos5l_a21oi_1
*I *865:A2 I *D sg13cmos5l_o21ai_1
*I *1045:X O *D sg13cmos5l_buf_1
*CAP
1 *874:B 0.000104965
2 *883:B 7.77332e-05
3 *870:A 2.92417e-05
4 *915:A1 0
5 *859:B 0
6 *799:B 9.00066e-05
7 *803:A2 0
8 *865:A2 0.000154379
9 *1045:X 0
10 *384:106 0.000332666
11 *384:94 0.000413412
12 *384:87 0.000380162
13 *384:77 0.000670146
14 *384:73 0.000906492
15 *384:71 0.00128556
16 *384:52 0.00165866
17 *384:31 0.000459835
18 *384:23 0.00157038
19 *384:21 0.00105465
20 *384:4 0.00107682
21 *883:B *386:75 1.54008e-05
22 *384:21 *797:A_N 0
23 *384:21 *403:20 0
24 *384:23 *449:14 0
25 *384:31 *803:A1 1.54008e-05
26 *384:31 *403:20 0
27 *384:31 *405:35 0.000128662
28 *384:52 *1060:A 4.77425e-05
29 *384:52 *388:45 0
30 *384:52 *388:57 0.000131027
31 *384:52 *400:10 4.77425e-05
32 *384:52 *449:8 0
33 *384:71 *437:20 0
34 *384:73 *392:84 0.000237387
35 *384:73 *411:35 0
36 *384:87 *386:33 0
37 *384:87 *386:35 0
38 *384:106 *898:A 1.54008e-05
39 *785:A *384:52 0
40 *848:A_N *384:52 0
41 *865:B1 *865:A2 1.54556e-05
42 *866:A2 *865:A2 0
43 *868:A1 *384:71 4.85092e-05
44 *869:A2 *384:52 0
45 *883:D *384:106 0.000106064
46 *893:B *384:73 0
47 *898:B *384:87 0
48 *901:B *384:87 0
49 *915:A2 *384:106 0.000522509
50 *917:A *384:31 0
51 *976:CLK *865:A2 0
52 *976:CLK *384:21 0
53 *1016:A *384:23 0
54 *1040:A *384:21 0
55 *1045:A *865:A2 0
56 *1045:A *384:21 0
57 *7:18 *874:B 4.86353e-05
58 *7:18 *384:71 0.000144767
59 *13:12 *384:31 0
60 *24:38 *384:21 0
61 *90:18 *384:52 0
62 *94:10 *384:73 0
63 *95:14 *384:77 0
64 *102:12 *384:71 0
65 *123:16 *384:21 0.000820827
66 *126:25 *384:21 0
67 *126:48 *384:31 0.000769913
68 *127:8 *384:77 0
69 *129:35 *874:B 8.04932e-05
70 *129:35 *384:73 0.000343101
71 *130:10 *384:52 0
72 *170:14 *384:21 0
73 *170:14 *384:23 0
74 *175:35 *384:87 0
75 *175:43 *883:B 6.39133e-05
76 *175:43 *384:77 0.000234224
77 *177:6 *384:87 7.90177e-05
78 *177:14 *384:87 4.78853e-05
79 *177:14 *384:106 0
80 *177:23 *870:A 3.23417e-05
81 *177:23 *384:87 7.96596e-05
82 *177:23 *384:94 6.4771e-05
83 *179:31 *384:87 4.77425e-05
84 *189:14 *384:73 0.000178862
85 *191:21 *384:106 0
86 *192:8 *384:73 0
87 *192:8 *384:77 0
88 *193:10 *874:B 0.000129431
89 *210:54 *384:77 0
90 *213:24 *384:52 0
91 *213:24 *384:71 0.000398319
92 *216:14 *384:31 0.0011446
93 *220:8 *384:106 0
94 *223:8 *384:31 0.000128662
95 *254:6 *384:52 0
96 *254:17 *384:52 0
97 *263:34 *384:73 0
98 *303:32 *384:71 0
99 *321:42 *384:73 0.000185245
100 *344:16 *384:52 9.54167e-05
101 *378:26 *384:71 0
*RES
1 *1045:X *384:4 20 
2 *384:4 *865:A2 21.8437 
3 *384:4 *384:21 49.4142 
4 *384:21 *384:23 1.1845 
5 *384:23 *384:31 47.2512 
6 *384:31 *803:A2 20 
7 *384:23 *384:52 29.2803 
8 *384:52 *799:B 40.7519 
9 *384:52 *384:71 45.6238 
10 *384:71 *384:73 6.7774 
11 *384:73 *384:77 22.575 
12 *384:77 *384:87 43.3063 
13 *384:87 *859:B 20 
14 *384:77 *384:94 0.5356 
15 *384:94 *384:106 44.2745 
16 *384:106 *915:A1 20 
17 *384:94 *870:A 20.3193 
18 *384:73 *883:B 40.7519 
19 *384:71 *874:B 41.4523 
*END

*D_NET *385 0.0103512
*CONN
*I *919:C I *D sg13cmos5l_or3_1
*I *920:A_N I *D sg13cmos5l_nand3b_1
*I *921:A I *D sg13cmos5l_nand3_1
*I *863:A2 I *D sg13cmos5l_a21oi_1
*I *804:A2 I *D sg13cmos5l_a221oi_1
*I *858:B I *D sg13cmos5l_nor2_1
*I *1046:X O *D sg13cmos5l_buf_1
*CAP
1 *919:C 0
2 *920:A_N 0
3 *921:A 0
4 *863:A2 0
5 *804:A2 9.8591e-05
6 *858:B 0
7 *1046:X 0.000161926
8 *385:85 0.00031066
9 *385:66 0.000639228
10 *385:56 0.00107015
11 *385:41 0.000218858
12 *385:39 0.000527002
13 *385:31 0.000804645
14 *385:21 0.000344513
15 *385:14 0.000314273
16 *385:10 0.00040933
17 *804:A2 *403:20 0.000308025
18 *385:14 *858:A 0
19 *385:14 *400:27 0
20 *385:31 *400:27 0.000112585
21 *385:39 *388:37 0
22 *385:39 *401:55 0.000252968
23 *385:39 *401:68 0.000523937
24 *385:56 *403:20 0.000664933
25 *385:66 *863:A1 0.000208939
26 *385:66 *407:16 2.20966e-05
27 *385:85 *405:35 4.68833e-05
28 *804:B1 *804:A2 0.000253559
29 *918:A *385:66 1.54008e-05
30 *921:B *385:85 1.54008e-05
31 *961:B *804:A2 7.53765e-05
32 *961:B *385:56 0.000645101
33 *981:CLK *804:A2 0
34 *1069:A *385:66 0
35 *1187:A *385:31 0.000288432
36 *90:18 *385:31 0
37 *98:14 *385:66 0
38 *102:22 *385:10 0.000662725
39 *125:26 *385:66 0.000122871
40 *134:10 *385:85 1.54008e-05
41 *193:21 *385:10 0.000662725
42 *213:24 *385:31 0.000234224
43 *224:14 *385:66 0
44 *225:8 *385:31 0.000128824
45 *226:10 *385:39 0
46 *227:16 *385:85 0
47 *240:10 *385:85 0
48 *240:16 *385:66 0
49 *244:14 *385:85 0
50 *250:10 *385:66 0
51 *258:43 *385:21 0
52 *263:53 *385:31 0.000176235
53 *263:53 *385:39 1.54008e-05
54 *307:14 *385:31 0
*RES
1 *1046:X *385:10 43.3887 
2 *385:10 *385:14 22.0497 
3 *385:14 *858:B 20 
4 *385:14 *385:21 0.8446 
5 *385:21 *385:31 43.7698 
6 *385:31 *385:39 46.0461 
7 *385:39 *385:41 20 
8 *385:41 *804:A2 41.7098 
9 *385:41 *385:56 23.0694 
10 *385:56 *385:66 46.8907 
11 *385:66 *863:A2 20 
12 *385:56 *385:85 42.9561 
13 *385:85 *921:A 20 
14 *385:31 *920:A_N 20 
15 *385:21 *919:C 20 
*END

*D_NET *386 0.0139158
*CONN
*I *905:A I *D sg13cmos5l_nor2_1
*I *901:A I *D sg13cmos5l_nor2_1
*I *896:A I *D sg13cmos5l_nor2_1
*I *883:A I *D sg13cmos5l_or4_1
*I *859:A I *D sg13cmos5l_nor3_1
*I *913:A I *D sg13cmos5l_nor2_1
*I *909:A I *D sg13cmos5l_nor2_1
*I *851:B1 I *D sg13cmos5l_a21oi_1
*I *1047:X O *D sg13cmos5l_buf_1
*CAP
1 *905:A 0
2 *901:A 0
3 *896:A 0
4 *883:A 0
5 *859:A 2.60565e-05
6 *913:A 2.94455e-05
7 *909:A 0.000345642
8 *851:B1 0.000105489
9 *1047:X 0
10 *386:111 0.00055726
11 *386:96 0.00099377
12 *386:83 0.00110682
13 *386:75 0.000799232
14 *386:68 0.000456497
15 *386:35 0.00109589
16 *386:33 0.0010982
17 *386:29 0.000960197
18 *386:21 0.000910818
19 *386:4 0.000735021
20 *851:B1 *387:36 0
21 *913:A *394:35 0
22 *386:21 *387:36 0
23 *386:21 *392:35 0.000416883
24 *386:21 *392:69 0.000198635
25 *386:21 *403:14 0.000111358
26 *386:29 *796:B_N 0
27 *386:29 *388:57 0.000235249
28 *386:29 *401:93 0
29 *386:33 *796:A 7.51285e-05
30 *386:33 *387:44 0
31 *386:35 *424:14 0.00055508
32 *386:68 *401:93 0
33 *386:75 *401:93 0
34 *386:83 *986:RESET_B 8.00842e-05
35 *386:96 *888:C 0
36 *386:96 *888:A_N 0
37 *386:96 *986:RESET_B 0.000176201
38 *386:111 *888:A_N 0
39 *386:111 *986:RESET_B 0
40 *386:111 *390:34 0.000112558
41 *386:111 *392:97 0
42 *386:111 *411:25 0.000112558
43 *883:B *386:75 1.54008e-05
44 *889:A1 *386:111 3.23417e-05
45 *896:B *386:75 0.000111027
46 *896:B *386:111 6.46834e-05
47 *898:B *859:A 4.77425e-05
48 *901:B *386:96 0
49 *909:B *909:A 0
50 *911:A1 *913:A 4.77702e-05
51 *986:D *386:96 0.000468907
52 *986:CLK *386:96 0
53 *30:10 *386:96 7.52149e-05
54 *54:10 *909:A 0
55 *95:14 *386:33 0.000341152
56 *95:30 *386:29 0.000235751
57 *127:8 *386:33 0
58 *128:25 *851:B1 0
59 *128:25 *386:21 0.000240763
60 *175:8 *386:33 0.000394282
61 *179:31 *859:A 4.77425e-05
62 *179:31 *386:33 0
63 *192:16 *386:68 4.77425e-05
64 *192:16 *386:75 0
65 *197:8 *386:68 0
66 *197:8 *386:75 0.000143171
67 *197:8 *386:111 4.77425e-05
68 *201:12 *386:111 0
69 *201:18 *386:83 0
70 *205:22 *386:83 0.000183755
71 *206:67 *386:68 0
72 *214:16 *386:111 0
73 *217:8 *909:A 0
74 *217:8 *386:35 0
75 *219:54 *386:33 0
76 *219:54 *386:35 0
77 *220:8 *386:35 0
78 *263:26 *386:83 7.65627e-05
79 *378:43 *386:35 0
80 *384:87 *386:33 0
81 *384:87 *386:35 0
*RES
1 *1047:X *386:4 20 
2 *386:4 *851:B1 21.133 
3 *386:4 *386:21 47.3439 
4 *386:21 *386:29 42.9252 
5 *386:29 *386:33 24.3054 
6 *386:33 *386:35 6.7774 
7 *386:35 *909:A 43.6359 
8 *386:35 *913:A 40.3193 
9 *386:33 *859:A 40.3193 
10 *386:29 *386:68 3.0797 
11 *386:68 *883:A 20 
12 *386:68 *386:75 1.4008 
13 *386:75 *386:83 41.3802 
14 *386:83 *896:A 20 
15 *386:83 *386:96 49.476 
16 *386:96 *901:A 20 
17 *386:75 *386:111 44.7586 
18 *386:111 *905:A 20 
*END

*D_NET *387 0.0147574
*CONN
*I *872:A I *D sg13cmos5l_nor2_1
*I *880:A I *D sg13cmos5l_nor2_1
*I *858:A I *D sg13cmos5l_nor2_1
*I *886:A I *D sg13cmos5l_nor2_1
*I *891:A I *D sg13cmos5l_nor2_1
*I *916:A1 I *D sg13cmos5l_o21ai_1
*I *1047:A I *D sg13cmos5l_buf_1
*I *865:A1 I *D sg13cmos5l_o21ai_1
*I *1048:X O *D sg13cmos5l_buf_1
*CAP
1 *872:A 7.43268e-05
2 *880:A 0.000137842
3 *858:A 0.000206401
4 *886:A 6.76465e-05
5 *891:A 8.55344e-05
6 *916:A1 0
7 *1047:A 2.77263e-05
8 *865:A1 0
9 *1048:X 0
10 *387:102 0.000212169
11 *387:91 0.000678582
12 *387:79 0.000664006
13 *387:68 0.000334734
14 *387:57 0.000740803
15 *387:44 0.000670678
16 *387:38 0.00125068
17 *387:36 0.000997339
18 *387:21 0.00116784
19 *387:12 0.000144671
20 *387:4 0.000287448
21 *387:12 *980:RESET_B 0
22 *387:36 *797:A_N 0
23 *387:36 *1052:A 0
24 *387:36 *389:10 7.89414e-05
25 *387:36 *392:69 0
26 *387:44 *796:A 0
27 *387:44 *390:10 0
28 *851:B1 *387:36 0
29 *869:A1 *880:A 8.00842e-05
30 *872:B *872:A 0
31 *878:B *872:A 0
32 *916:A2 *387:44 1.54008e-05
33 *976:CLK *387:12 0.000112766
34 *976:CLK *387:21 0.000209725
35 *976:CLK *387:36 0
36 *1041:A *387:91 8.00842e-05
37 *5:16 *387:91 0.000825289
38 *6:14 *891:A 0
39 *7:18 *880:A 0
40 *7:18 *886:A 0
41 *7:18 *387:79 0
42 *24:26 *387:12 0
43 *24:26 *387:21 0
44 *54:10 *387:44 0
45 *90:18 *858:A 0
46 *102:22 *387:91 0.000825695
47 *126:12 *387:12 0.000128991
48 *128:12 *387:36 4.78521e-05
49 *128:33 *387:36 0
50 *129:25 *387:57 0
51 *186:18 *387:91 0.000128664
52 *186:41 *387:91 0.000184912
53 *187:10 *387:91 0
54 *192:16 *387:68 0.000234505
55 *192:16 *387:79 0.000213778
56 *198:16 *387:79 0
57 *202:18 *387:36 0
58 *202:18 *387:57 0
59 *202:39 *891:A 1.54008e-05
60 *202:39 *387:68 0
61 *202:39 *387:79 0
62 *205:14 *891:A 4.76068e-05
63 *213:12 *387:57 0
64 *213:24 *387:57 0
65 *213:62 *387:57 0
66 *219:54 *387:44 0.00135861
67 *265:12 *387:79 0
68 *303:26 *387:57 0
69 *314:24 *872:A 0
70 *314:24 *880:A 0
71 *321:24 *886:A 0.000112548
72 *378:26 *387:44 0.00103275
73 *378:26 *387:57 0.000483185
74 *378:32 *387:44 0.000713183
75 *379:6 *387:91 7.89542e-05
76 *385:14 *858:A 0
77 *386:21 *387:36 0
78 *386:33 *387:44 0
*RES
1 *1048:X *387:4 20 
2 *387:4 *387:12 41.8437 
3 *387:12 *865:A1 20 
4 *387:4 *387:21 1.751 
5 *387:21 *1047:A 20.3502 
6 *387:21 *387:36 49.0743 
7 *387:36 *387:38 20 
8 *387:38 *387:44 30.3424 
9 *387:44 *916:A1 20 
10 *387:38 *387:57 46.5405 
11 *387:57 *891:A 40.7519 
12 *387:57 *387:68 1.0918 
13 *387:68 *886:A 40.7519 
14 *387:68 *387:79 2.0806 
15 *387:79 *387:91 47.0864 
16 *387:91 *858:A 41.6171 
17 *387:79 *387:102 20 
18 *387:102 *880:A 21.1845 
19 *387:102 *872:A 20.7519 
*END

*D_NET *388 0.0171919
*CONN
*I *863:A1 I *D sg13cmos5l_a21oi_1
*I *803:A1 I *D sg13cmos5l_a21oi_1
*I *920:B I *D sg13cmos5l_nand3b_1
*I *799:A I *D sg13cmos5l_nand2_1
*I *855:A I *D sg13cmos5l_nand2_1
*I *898:A I *D sg13cmos5l_nand3_1
*I *849:A0 I *D sg13cmos5l_mux2_1
*I *804:A1 I *D sg13cmos5l_a221oi_1
*I *1049:X O *D sg13cmos5l_buf_1
*CAP
1 *863:A1 0.000159042
2 *803:A1 0.000195085
3 *920:B 5.18638e-05
4 *799:A 5.61002e-05
5 *855:A 0
6 *898:A 0.000543357
7 *849:A0 0.000498684
8 *804:A1 0.000198521
9 *1049:X 8.55535e-05
10 *388:61 0.00122384
11 *388:57 0.00153712
12 *388:45 0.0018092
13 *388:37 0.00114999
14 *388:16 0.00113796
15 *388:12 0.000827281
16 *388:6 0.000637715
17 *849:A0 *1127:A 0.000338601
18 *849:A0 *391:18 0
19 *863:A1 *447:41 0
20 *388:12 *966:B 0
21 *388:12 *447:41 0
22 *388:57 *392:69 0.000130621
23 *802:A *388:37 1.54008e-05
24 *803:B1 *803:A1 0.00014416
25 *853:A *849:A0 0
26 *853:A *388:61 0
27 *860:A1 *849:A0 0
28 *860:A1 *898:A 0
29 *863:B1 *863:A1 0
30 *868:A1 *388:57 2.25909e-05
31 *902:A2 *898:A 0
32 *914:A2 *898:A 0
33 *917:A *388:37 0
34 *917:B *388:6 0
35 *917:B *388:12 0
36 *918:A *388:12 4.77425e-05
37 *918:B *388:6 0
38 *918:B *388:12 5.4817e-05
39 *919:B *388:37 0.000753789
40 *922:A *388:12 0.000144805
41 *922:B *388:12 0
42 *922:C *863:A1 0
43 *922:C *388:12 0
44 *961:B *388:16 0
45 *964:B *803:A1 0
46 *964:B *388:12 0.000336774
47 *964:B *388:37 0
48 *981:D *388:37 0.00020758
49 *981:CLK *388:37 0
50 *1068:A *388:6 0
51 *1166:A *898:A 0
52 *9:14 *920:B 0.000290043
53 *9:14 *388:45 0.000447135
54 *13:12 *388:37 0
55 *95:30 *388:57 0
56 *109:12 *863:A1 8.0276e-05
57 *118:14 *804:A1 0
58 *118:14 *388:16 0
59 *118:42 *804:A1 0
60 *131:8 *388:37 0
61 *133:12 *388:37 0.000111796
62 *135:10 *804:A1 7.93396e-05
63 *135:10 *388:37 0
64 *171:42 *849:A0 0
65 *176:10 *388:61 4.71556e-05
66 *177:14 *898:A 0.000177311
67 *179:16 *898:A 0
68 *179:16 *388:61 8.02434e-05
69 *198:31 *920:B 0.000266416
70 *198:31 *388:45 0.00107406
71 *198:31 *388:57 0.000554937
72 *216:24 *388:16 0.00012816
73 *216:56 *388:57 0
74 *224:14 *388:12 0
75 *256:101 *388:16 0
76 *302:14 *799:A 8.00842e-05
77 *302:28 *388:57 0.000770266
78 *310:45 *388:57 7.51285e-05
79 *344:16 *388:45 1.53326e-05
80 *378:26 *388:57 0
81 *384:31 *803:A1 1.54008e-05
82 *384:52 *388:45 0
83 *384:52 *388:57 0.000131027
84 *384:106 *898:A 1.54008e-05
85 *385:39 *388:37 0
86 *385:66 *863:A1 0.000208939
87 *386:29 *388:57 0.000235249
*RES
1 *1049:X *388:6 20.8446 
2 *388:6 *388:12 4.2642 
3 *388:12 *388:16 22.3278 
4 *388:16 *804:A1 41.8128 
5 *388:16 *388:37 47.293 
6 *388:37 *388:45 5.7886 
7 *388:45 *388:57 34.5436 
8 *388:57 *388:61 1.8128 
9 *388:61 *849:A0 25.2942 
10 *388:61 *898:A 25.2118 
11 *388:57 *855:A 20 
12 *388:45 *799:A 40.5356 
13 *388:37 *920:B 41.339 
14 *388:12 *803:A1 21.8128 
15 *388:6 *863:A1 21.751 
*END

*D_NET *389 0.00764047
*CONN
*I *895:C I *D sg13cmos5l_nor4_1
*I *871:C I *D sg13cmos5l_nor4_1
*I *879:C I *D sg13cmos5l_and4_1
*I *850:B I *D sg13cmos5l_nand2b_1
*I *912:C I *D sg13cmos5l_nor4_1
*I *852:A1 I *D sg13cmos5l_mux2_1
*I *900:C I *D sg13cmos5l_and4_1
*I *797:A_N I *D sg13cmos5l_nand2b_1
*I *1050:X O *D sg13cmos5l_buf_1
*CAP
1 *895:C 0
2 *871:C 4.97838e-05
3 *879:C 0.000248031
4 *850:B 9.8999e-05
5 *912:C 0.00011606
6 *852:A1 0.00029761
7 *900:C 8.71627e-05
8 *797:A_N 0.000300012
9 *1050:X 0.000186627
10 *389:82 0.000367471
11 *389:78 0.00036243
12 *389:36 0.000446544
13 *389:34 0.000297441
14 *389:30 0.000505822
15 *389:28 0.00065291
16 *389:10 0.000413717
17 *797:A_N *391:103 0.000112333
18 *850:B *438:25 4.77425e-05
19 *850:B *438:77 9.62561e-05
20 *852:A1 *900:D 0.000112426
21 *879:C *871:B 0.000111882
22 *879:C *879:B 0.000144389
23 *879:C *437:20 0
24 *900:C *900:B 8.00842e-05
25 *900:C *900:D 1.54008e-05
26 *912:C *900:B 0.000112179
27 *912:C *391:29 0
28 *912:C *391:35 4.77425e-05
29 *389:10 *403:14 5.59766e-05
30 *389:30 *401:32 0.000158999
31 *389:30 *401:93 7.53861e-05
32 *389:34 *401:32 0.000288097
33 *389:78 *895:B 4.77425e-05
34 *757:A *871:C 0
35 *757:A *389:82 0
36 *798:A *389:78 0.00014357
37 *852:A0 *852:A1 1.54556e-05
38 *879:D *879:C 8.00842e-05
39 *890:C *389:78 0
40 *895:D *879:C 0
41 *976:CLK *797:A_N 0
42 *1045:A *797:A_N 0
43 *41:12 *852:A1 0.000111951
44 *128:33 *389:10 0.000236081
45 *171:8 *389:30 0
46 *171:8 *389:34 0
47 *171:8 *389:78 0
48 *171:42 *852:A1 0
49 *206:8 *389:78 7.9104e-05
50 *206:16 *389:78 7.51285e-05
51 *206:59 *389:82 0.000128663
52 *216:14 *389:10 0.000288087
53 *251:8 *871:C 0.000107498
54 *251:8 *389:82 2.21831e-05
55 *251:10 *389:82 0.000182023
56 *251:12 *389:82 7.51285e-05
57 *360:26 *850:B 7.93152e-05
58 *360:26 *389:30 0
59 *360:26 *389:78 0
60 *384:21 *797:A_N 0
61 *387:36 *797:A_N 0
62 *387:36 *389:10 7.89414e-05
*RES
1 *1050:X *389:10 41.8746 
2 *389:10 *797:A_N 41.9909 
3 *1050:X *389:28 40.5356 
4 *389:28 *389:30 2.575 
5 *389:30 *389:34 21.339 
6 *389:34 *389:36 0.5356 
7 *389:36 *900:C 21.133 
8 *389:36 *852:A1 23.1518 
9 *389:34 *912:C 21.1845 
10 *389:30 *850:B 40.9682 
11 *389:28 *389:78 22.7707 
12 *389:78 *389:82 21.0918 
13 *389:82 *879:C 42.6059 
14 *389:82 *871:C 40.5974 
15 *389:78 *895:C 20 
*END

*D_NET *390 0.0049209
*CONN
*I *882:B I *D sg13cmos5l_nand3_1
*I *888:B I *D sg13cmos5l_nand3b_1
*I *761:A I *D sg13cmos5l_inv_1
*I *796:A I *D sg13cmos5l_nor2b_1
*I *1051:X O *D sg13cmos5l_buf_1
*CAP
1 *882:B 3.82628e-05
2 *888:B 0
3 *761:A 0
4 *796:A 0.00012323
5 *1051:X 0.000293607
6 *390:40 0.000284009
7 *390:34 0.000918784
8 *390:23 0.000794026
9 *390:10 0.00061435
10 *390:23 *392:84 0
11 *390:34 *882:A 0
12 *390:34 *411:25 0
13 *390:40 *411:23 0.000766808
14 *892:A2 *882:B 0
15 *893:B *390:10 0
16 *62:10 *390:34 0
17 *94:10 *390:10 0
18 *94:10 *390:23 0.00011236
19 *94:20 *390:10 0
20 *196:10 *390:34 4.75166e-05
21 *196:10 *390:40 0
22 *196:31 *390:34 4.77425e-05
23 *196:31 *390:40 0
24 *201:8 *390:40 0
25 *206:67 *390:23 0.000339135
26 *206:67 *390:34 9.66587e-05
27 *213:24 *390:10 0.000235203
28 *321:34 *390:23 0
29 *321:34 *390:34 2.15168e-05
30 *386:33 *796:A 7.51285e-05
31 *386:111 *390:34 0.000112558
32 *387:44 *796:A 0
33 *387:44 *390:10 0
*RES
1 *1051:X *390:10 43.3578 
2 *390:10 *796:A 41.339 
3 *390:10 *390:23 22.266 
4 *390:23 *761:A 20 
5 *390:23 *390:34 5.1912 
6 *390:34 *390:40 43.5638 
7 *390:40 *888:B 20 
8 *390:34 *882:B 20.3502 
*END

*D_NET *391 0.00933561
*CONN
*I *797:B I *D sg13cmos5l_nand2b_1
*I *850:A_N I *D sg13cmos5l_nand2b_1
*I *885:B I *D sg13cmos5l_nor4_1
*I *871:B I *D sg13cmos5l_nor4_1
*I *879:B I *D sg13cmos5l_and4_1
*I *912:B I *D sg13cmos5l_nor4_1
*I *900:B I *D sg13cmos5l_and4_1
*I *849:S I *D sg13cmos5l_mux2_1
*I *1052:X O *D sg13cmos5l_buf_1
*CAP
1 *797:B 0
2 *850:A_N 2.97838e-05
3 *885:B 0.000212541
4 *871:B 0.000159152
5 *879:B 8.50797e-05
6 *912:B 0
7 *900:B 0.00024189
8 *849:S 0
9 *1052:X 2.95243e-05
10 *391:103 0.000384736
11 *391:66 0.000465266
12 *391:55 0.000614723
13 *391:35 0.000480187
14 *391:29 0.000970253
15 *391:25 0.000555352
16 *391:18 0.000262914
17 *391:10 0.000616025
18 *391:6 0.00053769
19 *871:B *437:20 0
20 *885:B *438:65 0
21 *391:6 *395:88 4.74248e-05
22 *391:10 *395:88 0
23 *391:18 *438:10 0
24 *391:18 *438:25 0
25 *391:25 *1052:A 0
26 *391:25 *395:88 0
27 *391:25 *438:25 0
28 *391:29 *762:A 0
29 *391:35 *438:83 0
30 *391:55 *438:83 0
31 *391:103 *395:88 0
32 *391:103 *403:20 0
33 *757:A *885:B 0
34 *757:A *391:55 0
35 *757:A *391:66 0
36 *797:A_N *391:103 0.000112333
37 *849:A0 *391:18 0
38 *853:A *391:35 0
39 *879:C *871:B 0.000111882
40 *879:C *879:B 0.000144389
41 *885:A *885:B 0.000112535
42 *885:C *885:B 0
43 *885:C *391:66 0
44 *895:D *879:B 8.36452e-05
45 *900:C *900:B 8.00842e-05
46 *912:C *900:B 0.000112179
47 *912:C *391:29 0
48 *912:C *391:35 4.77425e-05
49 *976:D *850:A_N 0
50 *976:D *391:10 0
51 *976:D *391:25 0
52 *976:CLK *391:103 0.000112333
53 *24:38 *391:103 0
54 *41:12 *391:10 0.000144822
55 *41:12 *391:25 0.000321238
56 *42:16 *900:B 0.00017628
57 *42:33 *391:55 0.000610218
58 *95:30 *391:55 0
59 *128:12 *391:103 0
60 *171:42 *900:B 0
61 *171:52 *391:18 0.000342449
62 *173:8 *391:103 0.000340288
63 *213:8 *391:55 7.51542e-05
64 *216:14 *391:103 0
65 *216:56 *391:35 0
66 *216:56 *391:55 0.000396105
67 *219:54 *391:29 7.92652e-05
68 *219:54 *391:35 0
69 *302:28 *885:B 0
70 *360:14 *391:29 3.23417e-05
71 *360:14 *391:35 0
72 *360:26 *391:29 0.000207785
*RES
1 *1052:X *391:6 20.3193 
2 *391:6 *391:10 1.3184 
3 *391:10 *391:18 43.3007 
4 *391:18 *849:S 20 
5 *391:10 *391:25 2.4823 
6 *391:25 *391:29 22.9149 
7 *391:29 *391:35 22.2763 
8 *391:35 *900:B 22.5338 
9 *391:35 *912:B 20 
10 *391:29 *391:55 5.3663 
11 *391:55 *879:B 40.9682 
12 *391:55 *391:66 0.8446 
13 *391:66 *871:B 41.4008 
14 *391:66 *885:B 42.163 
15 *391:25 *850:A_N 20.3502 
16 *391:6 *391:103 44.5629 
17 *391:103 *797:B 20 
*END

*D_NET *392 0.0132671
*CONN
*I *893:A I *D sg13cmos5l_nand3_1
*I *882:A I *D sg13cmos5l_nand3_1
*I *888:A_N I *D sg13cmos5l_nand3b_1
*I *875:A_N I *D sg13cmos5l_nand3b_1
*I *904:B I *D sg13cmos5l_nor4_1
*I *895:B I *D sg13cmos5l_nor4_1
*I *796:B_N I *D sg13cmos5l_nor2b_1
*I *1052:A I *D sg13cmos5l_buf_1
*I *1053:X O *D sg13cmos5l_buf_1
*CAP
1 *893:A 5.90422e-05
2 *882:A 0.000172304
3 *888:A_N 0.000422403
4 *875:A_N 0
5 *904:B 0
6 *895:B 0.00020821
7 *796:B_N 0.000418335
8 *1052:A 0.000405905
9 *1053:X 0.00030121
10 *392:97 0.00111184
11 *392:91 0.000606379
12 *392:84 0.000573629
13 *392:69 0.00075892
14 *392:37 0.000626545
15 *392:35 0.000571104
16 *392:18 0.000877663
17 *392:10 0.000417363
18 *888:A_N *888:C 1.54556e-05
19 *1052:A *395:88 0
20 *1052:A *438:25 7.98669e-05
21 *392:10 *401:32 0
22 *392:18 *438:25 0
23 *392:35 *401:38 0.000344178
24 *392:35 *438:40 0.000183404
25 *392:84 *411:25 1.54008e-05
26 *392:84 *411:35 0.000124551
27 *392:97 *411:25 0
28 *392:97 *414:8 0
29 *764:A *392:84 0
30 *851:A2 *1052:A 0.000562314
31 *875:B *392:84 0
32 *890:C *895:B 0
33 *892:A2 *882:A 0
34 *892:A2 *392:97 0
35 *901:B *888:A_N 0.000176665
36 *904:A *392:84 1.54008e-05
37 *976:D *1052:A 7.97661e-05
38 *6:14 *893:A 0
39 *6:14 *392:97 0
40 *41:12 *392:10 0
41 *42:22 *392:10 0.000448627
42 *42:22 *392:18 0.000181341
43 *42:22 *392:35 0.000130532
44 *42:33 *796:B_N 0
45 *42:33 *895:B 0
46 *62:10 *882:A 0
47 *94:10 *392:84 0
48 *94:20 *392:84 0
49 *171:8 *796:B_N 0
50 *196:10 *882:A 4.75166e-05
51 *196:10 *888:A_N 0.0007664
52 *196:10 *392:97 7.53765e-05
53 *196:31 *882:A 3.23417e-05
54 *202:10 *895:B 7.54613e-05
55 *202:39 *392:97 0
56 *205:14 *392:97 0
57 *206:59 *796:B_N 0.000129137
58 *206:59 *895:B 0.000268885
59 *206:67 *796:B_N 0.000498736
60 *206:67 *392:84 0
61 *207:10 *888:A_N 0
62 *213:62 *392:97 0.000208025
63 *216:56 *796:B_N 0.000142958
64 *263:34 *392:84 0
65 *321:34 *392:84 8.00842e-05
66 *360:26 *392:10 2.25909e-05
67 *384:73 *392:84 0.000237387
68 *386:21 *392:35 0.000416883
69 *386:21 *392:69 0.000198635
70 *386:29 *796:B_N 0
71 *386:96 *888:A_N 0
72 *386:111 *888:A_N 0
73 *386:111 *392:97 0
74 *387:36 *1052:A 0
75 *387:36 *392:69 0
76 *388:57 *392:69 0.000130621
77 *389:78 *895:B 4.77425e-05
78 *390:23 *392:84 0
79 *390:34 *882:A 0
80 *391:25 *1052:A 0
*RES
1 *1053:X *392:10 43.1415 
2 *392:10 *392:18 41.3802 
3 *392:18 *1052:A 44.3466 
4 *392:18 *392:35 24.532 
5 *392:35 *392:37 20 
6 *392:37 *796:B_N 44.1921 
7 *392:37 *895:B 42.4411 
8 *392:35 *392:69 42.2145 
9 *392:69 *904:B 20 
10 *392:69 *392:84 45.1912 
11 *392:84 *875:A_N 20 
12 *392:84 *392:91 0.3502 
13 *392:91 *392:97 24.5011 
14 *392:97 *888:A_N 44.7483 
15 *392:97 *882:A 41.5347 
16 *392:91 *893:A 20.5974 
*END

*D_NET *393 0.00174938
*CONN
*I *1107:A I *D sg13cmos5l_dlygate4sd3_1
*I *994:Q O *D sg13cmos5l_dfrbpq_1
*CAP
1 *1107:A 3.46304e-05
2 *994:Q 0.000348152
3 *393:8 0.000382782
4 *314:10 *393:8 0
5 *368:12 *393:8 0.000983812
*RES
1 *994:Q *393:8 44.5526 
2 *393:8 *1107:A 40.3193 
*END

*D_NET *394 0.00871468
*CONN
*I *985:RESET_B I *D sg13cmos5l_dfrbpq_1
*I *987:RESET_B I *D sg13cmos5l_dfrbpq_1
*I *989:RESET_B I *D sg13cmos5l_dfrbpq_1
*I *988:RESET_B I *D sg13cmos5l_dfrbpq_1
*I *991:RESET_B I *D sg13cmos5l_dfrbpq_1
*I *990:RESET_B I *D sg13cmos5l_dfrbpq_1
*I *978:RESET_B I *D sg13cmos5l_dfrbpq_1
*I *977:RESET_B I *D sg13cmos5l_dfrbpq_1
*I *1054:X O *D sg13cmos5l_buf_1
*CAP
1 *985:RESET_B 0
2 *987:RESET_B 5.61901e-05
3 *989:RESET_B 0.000114154
4 *988:RESET_B 8.28933e-05
5 *991:RESET_B 0
6 *990:RESET_B 0
7 *978:RESET_B 0
8 *977:RESET_B 0
9 *1054:X 0.000483501
10 *394:92 0.00118412
11 *394:77 0.00161141
12 *394:66 0.000565875
13 *394:53 0.000714553
14 *394:44 0.000736471
15 *394:35 0.000632452
16 *394:26 0.000632001
17 *394:10 0.000298527
18 *987:RESET_B *425:8 0
19 *988:RESET_B *906:B1 0
20 *989:RESET_B *424:14 0
21 *394:10 *1054:A 0
22 *394:10 *401:17 0
23 *394:44 *990:D 0
24 *394:53 *906:B1 0
25 *394:53 *991:D 0
26 *394:53 *424:14 0
27 *394:53 *433:10 0
28 *394:66 *424:29 0
29 *394:92 *884:B1 0.000144633
30 *856:B1 *394:26 0
31 *892:B1 *394:92 0
32 *906:A1 *394:53 0
33 *909:B *394:26 0
34 *909:B *394:35 0
35 *911:A1 *394:26 0
36 *911:A1 *394:35 0
37 *911:A1 *394:44 0
38 *913:A *394:35 0
39 *986:CLK *394:92 0
40 *989:CLK *394:53 0
41 *990:CLK *394:35 0
42 *990:CLK *394:44 0
43 *1150:A *988:RESET_B 0
44 *1150:A *989:RESET_B 0.000241847
45 *1153:A *987:RESET_B 0
46 *1156:A *394:92 0
47 *1162:A *394:35 0
48 *1191:A *394:92 0
49 *66:16 *394:44 0
50 *97:14 *394:92 0
51 *101:12 *394:92 0
52 *205:22 *394:44 0
53 *211:10 *394:77 0
54 *211:10 *394:92 0
55 *212:18 *394:77 0
56 *214:16 *394:53 0
57 *215:8 *394:53 0
58 *257:10 *394:77 0
59 *257:74 *394:92 0
60 *263:16 *988:RESET_B 0.000128662
61 *263:16 *394:66 0.000266405
62 *263:16 *394:77 0.000585841
63 *337:10 *394:10 0.000235141
64 *360:14 *394:10 0
65 *379:36 *394:92 0
*RES
1 *1054:X *394:10 43.4814 
2 *394:10 *977:RESET_B 40 
3 *1054:X *394:26 21.9673 
4 *394:26 *978:RESET_B 20 
5 *394:26 *394:35 4.841 
6 *394:35 *990:RESET_B 20 
7 *394:35 *394:44 2.1836 
8 *394:44 *991:RESET_B 20 
9 *394:44 *394:53 25.2692 
10 *394:53 *988:RESET_B 41.133 
11 *394:53 *394:66 1.339 
12 *394:66 *989:RESET_B 41.8334 
13 *394:66 *394:77 5.047 
14 *394:77 *987:RESET_B 40.5356 
15 *394:77 *394:92 30.8356 
16 *394:92 *985:RESET_B 20 
*END

*D_NET *395 0.00955783
*CONN
*I *980:RESET_B I *D sg13cmos5l_dfrbpq_1
*I *976:RESET_B I *D sg13cmos5l_dfrbpq_1
*I *973:RESET_B I *D sg13cmos5l_dfrbpq_1
*I *975:RESET_B I *D sg13cmos5l_dfrbpq_1
*I *974:RESET_B I *D sg13cmos5l_dfrbpq_1
*I *972:RESET_B I *D sg13cmos5l_dfrbpq_1
*I *971:RESET_B I *D sg13cmos5l_dfrbpq_1
*I *969:RESET_B I *D sg13cmos5l_dfrbpq_1
*I *1055:X O *D sg13cmos5l_buf_1
*CAP
1 *980:RESET_B 0.0003189
2 *976:RESET_B 0
3 *973:RESET_B 0
4 *975:RESET_B 0.000384642
5 *974:RESET_B 0
6 *972:RESET_B 0
7 *971:RESET_B 0
8 *969:RESET_B 0
9 *1055:X 0
10 *395:88 0.00068722
11 *395:80 0.0013751
12 *395:69 0.000544598
13 *395:58 0.000977594
14 *395:32 0.00047831
15 *395:20 0.000663729
16 *395:18 0.00122589
17 *395:10 0.00146003
18 *395:6 0.000564846
19 *395:4 0.000562621
20 *980:RESET_B *445:12 0
21 *980:RESET_B *445:25 0
22 *395:58 *429:8 0.000128663
23 *395:80 *445:25 0
24 *395:88 *401:38 0
25 *831:B *395:20 0
26 *831:B *395:32 0
27 *832:A_N *395:32 0
28 *833:B *395:18 0
29 *839:A2 *395:18 0
30 *844:A *395:88 0
31 *969:D *395:32 0
32 *971:D *395:32 0
33 *973:D *975:RESET_B 0
34 *973:CLK *395:88 0
35 *974:D *395:10 0
36 *976:D *395:88 1.54008e-05
37 *976:CLK *980:RESET_B 0.000122871
38 *1052:A *395:88 0
39 *24:26 *395:32 0
40 *24:26 *395:88 0
41 *47:8 *395:32 0
42 *50:8 *395:69 0
43 *146:12 *395:32 0
44 *147:10 *395:32 0
45 *148:44 *395:10 0
46 *160:12 *395:18 0
47 *169:10 *395:6 0
48 *169:10 *395:10 0
49 *169:10 *395:58 0
50 *169:10 *395:69 0
51 *216:14 *395:88 0
52 *255:8 *975:RESET_B 0
53 *255:12 *395:10 0
54 *255:12 *395:18 0
55 *255:22 *395:18 0
56 *255:46 *975:RESET_B 0
57 *329:10 *395:80 0
58 *333:10 *395:18 0
59 *334:8 *395:20 0
60 *334:8 *395:32 0
61 *334:30 *395:18 0
62 *334:30 *395:32 0
63 *387:12 *980:RESET_B 0
64 *391:6 *395:88 4.74248e-05
65 *391:10 *395:88 0
66 *391:25 *395:88 0
67 *391:103 *395:88 0
*RES
1 *1055:X *395:4 20 
2 *395:4 *395:6 1.6171 
3 *395:6 *395:10 3.829 
4 *395:10 *395:18 49.7541 
5 *395:18 *395:20 1.6171 
6 *395:20 *395:32 45.1088 
7 *395:32 *969:RESET_B 20 
8 *395:20 *971:RESET_B 20 
9 *395:10 *972:RESET_B 20 
10 *395:6 *974:RESET_B 20 
11 *395:4 *395:58 25.0573 
12 *395:58 *975:RESET_B 43.9964 
13 *395:58 *395:69 2.3278 
14 *395:69 *973:RESET_B 40 
15 *395:69 *395:80 4.3775 
16 *395:80 *395:88 45.8375 
17 *395:88 *976:RESET_B 40 
18 *395:80 *980:RESET_B 43.8831 
*END

*D_NET *396 0.0131948
*CONN
*I *1010:RESET_B I *D sg13cmos5l_dfrbpq_1
*I *1006:RESET_B I *D sg13cmos5l_dfrbpq_1
*I *1003:RESET_B I *D sg13cmos5l_dfrbpq_1
*I *1008:RESET_B I *D sg13cmos5l_dfrbpq_1
*I *1007:RESET_B I *D sg13cmos5l_dfrbpq_1
*I *1009:RESET_B I *D sg13cmos5l_dfrbpq_1
*I *1011:RESET_B I *D sg13cmos5l_dfrbpq_1
*I *1015:RESET_B I *D sg13cmos5l_dfrbpq_1
*I *1056:X O *D sg13cmos5l_buf_1
*CAP
1 *1010:RESET_B 0
2 *1006:RESET_B 0
3 *1003:RESET_B 0.000734745
4 *1008:RESET_B 0.000210962
5 *1007:RESET_B 0
6 *1009:RESET_B 0
7 *1011:RESET_B 0
8 *1015:RESET_B 0
9 *1056:X 0
10 *396:103 0.000487878
11 *396:77 0.000984765
12 *396:68 0.000969687
13 *396:50 0.000399024
14 *396:38 0.000536767
15 *396:36 0.00124704
16 *396:23 0.000702113
17 *396:16 0.00060142
18 *396:8 0.00083293
19 *396:4 0.000617867
20 *1003:RESET_B *1005:RESET_B 0.000274512
21 *396:16 *398:40 0
22 *396:16 *398:46 0
23 *396:16 *398:68 0
24 *396:23 *1198:A 0
25 *396:36 *1198:A 0
26 *396:50 *397:12 0
27 *396:103 *1198:A 0
28 bp8 *396:103 0
29 *778:A *396:103 0
30 *948:A1 *396:38 0
31 *948:A1 *396:50 0.000450985
32 *948:A1 *396:68 0
33 *950:A2 *1003:RESET_B 0
34 *1029:A *396:103 0
35 *1094:A *1003:RESET_B 0
36 *1110:A *396:36 0.000242203
37 *17:12 *1008:RESET_B 0
38 *17:12 *396:77 0
39 *17:12 *396:103 4.77425e-05
40 *89:12 *396:50 0
41 *103:14 *1003:RESET_B 0.00118072
42 *103:14 *1008:RESET_B 0
43 *103:14 *396:77 0
44 *115:12 *396:16 0
45 *115:12 *396:103 0
46 *246:14 *396:23 0
47 *246:14 *396:36 8.0216e-05
48 *259:20 *396:50 0
49 *259:66 *396:50 0
50 *260:10 *1003:RESET_B 0
51 *260:33 *396:103 0.000448723
52 *277:10 *396:36 0.000177158
53 *290:16 *396:38 0
54 *290:16 *396:50 0
55 *290:16 *396:68 0
56 *295:10 *1008:RESET_B 0
57 *298:24 *396:16 0.000819935
58 *300:16 *1003:RESET_B 0
59 *300:24 *396:77 0
60 *310:20 *396:50 0.00018365
61 *318:12 *396:103 4.77425e-05
62 *366:8 *396:16 0.000340288
63 *369:8 *396:50 4.77425e-05
64 *369:12 *396:50 7.65627e-05
65 *369:66 *396:50 0.000209582
66 *372:24 *396:50 0.000241847
*RES
1 *1056:X *396:4 20 
2 *396:4 *396:8 1.1021 
3 *396:8 *396:16 47.7456 
4 *396:16 *1015:RESET_B 20 
5 *396:8 *396:23 0.9682 
6 *396:23 *1011:RESET_B 20 
7 *396:23 *396:36 26.18 
8 *396:36 *396:38 1.0918 
9 *396:38 *396:50 45.356 
10 *396:50 *1009:RESET_B 40 
11 *396:38 *1007:RESET_B 40 
12 *396:36 *396:68 24.0582 
13 *396:68 *1008:RESET_B 21.8334 
14 *396:68 *396:77 2.266 
15 *396:77 *1003:RESET_B 28.5902 
16 *396:77 *1006:RESET_B 20 
17 *396:4 *396:103 44.9131 
18 *396:103 *1010:RESET_B 20 
*END

*D_NET *397 0.00887584
*CONN
*I *1012:RESET_B I *D sg13cmos5l_dfrbpq_1
*I *1005:RESET_B I *D sg13cmos5l_dfrbpq_1
*I *1004:RESET_B I *D sg13cmos5l_dfrbpq_1
*I *1014:RESET_B I *D sg13cmos5l_dfrbpq_1
*I *1057:X O *D sg13cmos5l_buf_1
*CAP
1 *1012:RESET_B 0.000254389
2 *1005:RESET_B 0.000583299
3 *1004:RESET_B 0
4 *1014:RESET_B 0
5 *1057:X 0.000911808
6 *397:45 0.000773927
7 *397:41 0.00114767
8 *397:20 0.00101732
9 *397:12 0.00122648
10 *1005:RESET_B *407:16 0.000212456
11 *397:20 *398:87 0.000176099
12 *397:41 *398:87 1.54008e-05
13 *397:41 *408:10 0
14 *397:41 *409:10 0.000382594
15 *397:45 *406:10 0
16 *397:45 *407:16 0.000610897
17 *946:A1 *1012:RESET_B 0
18 *946:A1 *397:41 0
19 *950:A2 *1005:RESET_B 0
20 *956:A1 *397:12 0
21 *956:A2 *397:20 0
22 *956:A2 *397:41 8.00842e-05
23 *1003:RESET_B *1005:RESET_B 0.000274512
24 *80:10 *1012:RESET_B 8.0216e-05
25 *110:10 *397:12 0.000182626
26 *111:12 *397:12 0.000144849
27 *111:12 *397:20 4.78688e-05
28 *243:22 *397:20 0.000177214
29 *244:28 *397:41 0
30 *261:20 *1005:RESET_B 0
31 *288:12 *1005:RESET_B 0
32 *291:10 *1005:RESET_B 0
33 *300:16 *1005:RESET_B 0
34 *305:26 *397:41 0.000237259
35 *354:10 *1005:RESET_B 0
36 *354:10 *397:45 0
37 *367:10 *1005:RESET_B 0
38 *369:89 *1012:RESET_B 0
39 *369:89 *397:41 0.000338876
40 *396:50 *397:12 0
*RES
1 *1057:X *397:12 48.0031 
2 *397:12 *397:20 23.1518 
3 *397:20 *1014:RESET_B 20 
4 *397:20 *397:41 47.9722 
5 *397:41 *397:45 22.8222 
6 *397:45 *1004:RESET_B 40 
7 *397:45 *1005:RESET_B 46.8804 
8 *397:41 *1012:RESET_B 22.266 
*END

*D_NET *398 0.00854659
*CONN
*I *979:RESET_B I *D sg13cmos5l_dfrbpq_1
*I *970:RESET_B I *D sg13cmos5l_dfrbpq_1
*I *1056:A I *D sg13cmos5l_buf_1
*I *1057:A I *D sg13cmos5l_buf_1
*I *968:RESET_B I *D sg13cmos5l_dfrbpq_1
*I *967:RESET_B I *D sg13cmos5l_dfrbpq_1
*I *1058:X O *D sg13cmos5l_buf_1
*CAP
1 *979:RESET_B 0
2 *970:RESET_B 0
3 *1056:A 0.000283568
4 *1057:A 0
5 *968:RESET_B 0.000203599
6 *967:RESET_B 0.000139057
7 *1058:X 0.000382715
8 *398:87 0.000507002
9 *398:68 0.00110128
10 *398:46 0.000733158
11 *398:40 0.00134929
12 *398:14 0.000446498
13 *398:12 0.000791982
14 *398:68 *440:12 1.54008e-05
15 *398:87 *966:C 0
16 *778:A *1056:A 0
17 *778:A *398:46 0
18 *790:A *968:RESET_B 0
19 *790:A *398:12 0.000144942
20 *815:B1 *967:RESET_B 0
21 *829:A *398:12 0
22 *967:D *967:RESET_B 0
23 *967:D *968:RESET_B 0.00020973
24 *968:D *968:RESET_B 0
25 *1009:D *398:68 0.000242121
26 *1009:D *398:87 0.000176639
27 *1028:A *398:12 0
28 *89:12 *398:68 0.000339491
29 *89:12 *398:87 3.23417e-05
30 *98:10 *398:87 0.000181192
31 *114:10 *398:46 0
32 *115:12 *1056:A 0
33 *115:12 *398:46 0
34 *243:22 *398:46 0.000144752
35 *243:22 *398:68 0
36 *243:22 *398:87 0.000111416
37 *244:28 *398:87 0.000112667
38 *253:8 *398:14 7.52149e-05
39 *253:8 *398:40 0.000395897
40 *259:26 *398:12 0
41 *259:44 *398:12 0
42 *284:8 *967:RESET_B 0
43 *369:115 *1056:A 0.000235141
44 *396:16 *398:40 0
45 *396:16 *398:46 0
46 *396:16 *398:68 0
47 *397:20 *398:87 0.000176099
48 *397:41 *398:87 1.54008e-05
*RES
1 *1058:X *398:12 44.017 
2 *398:12 *398:14 1.339 
3 *398:14 *967:RESET_B 41.6583 
4 *398:14 *968:RESET_B 42.3999 
5 *398:12 *398:40 24.0582 
6 *398:40 *398:46 24.4084 
7 *398:46 *1057:A 40 
8 *398:46 *1056:A 42.8222 
9 *398:40 *398:68 6.3963 
10 *398:68 *970:RESET_B 20 
11 *398:68 *398:87 45.3972 
12 *398:87 *979:RESET_B 20 
*END

*D_NET *399 0.0132676
*CONN
*I *992:RESET_B I *D sg13cmos5l_dfrbpq_1
*I *997:RESET_B I *D sg13cmos5l_dfrbpq_1
*I *993:RESET_B I *D sg13cmos5l_dfrbpq_1
*I *996:RESET_B I *D sg13cmos5l_dfrbpq_1
*I *1000:RESET_B I *D sg13cmos5l_dfrbpq_1
*I *1001:RESET_B I *D sg13cmos5l_dfrbpq_1
*I *1002:RESET_B I *D sg13cmos5l_dfrbpq_1
*I *999:RESET_B I *D sg13cmos5l_dfrbpq_1
*I *1059:X O *D sg13cmos5l_buf_1
*CAP
1 *992:RESET_B 0.00012525
2 *997:RESET_B 0.000296841
3 *993:RESET_B 0.000320303
4 *996:RESET_B 6.30032e-05
5 *1000:RESET_B 0
6 *1001:RESET_B 0
7 *1002:RESET_B 0.000453853
8 *999:RESET_B 0
9 *1059:X 0.000390524
10 *399:74 0.000856373
11 *399:56 0.0005016
12 *399:52 0.00123499
13 *399:31 0.000721737
14 *399:29 0.000650402
15 *399:21 0.00182396
16 *399:10 0.00114955
17 *399:10 *1059:A 0
18 *399:52 *1101:A 0
19 bn5 *399:74 0
20 *767:A *993:RESET_B 0
21 *936:B *399:10 0.000182711
22 *938:D *399:52 0
23 *993:CLK *993:RESET_B 0
24 *1075:A *1002:RESET_B 0
25 *1084:A *399:31 0
26 *1096:A *996:RESET_B 0
27 *1096:A *399:52 0
28 *1098:A *993:RESET_B 0
29 *1173:A *1002:RESET_B 0
30 *1173:A *399:31 0
31 *1187:A *399:21 0
32 *7:30 *399:56 0.000553662
33 *7:30 *399:74 0.00140674
34 *8:14 *399:10 0
35 *9:14 *399:29 0.000500214
36 *72:8 *399:56 0.000447598
37 *74:10 *399:74 0
38 *76:10 *399:29 0
39 *97:22 *992:RESET_B 0.000160863
40 *97:22 *997:RESET_B 0.000436237
41 *103:14 *1002:RESET_B 0
42 *103:14 *399:31 0
43 *103:14 *399:52 0
44 *103:22 *399:52 0.00027417
45 *134:39 *399:10 0
46 *213:24 *399:10 7.66483e-05
47 *234:10 *993:RESET_B 0
48 *261:10 *1002:RESET_B 0
49 *261:12 *1002:RESET_B 0
50 *261:72 *992:RESET_B 0
51 *261:72 *997:RESET_B 0
52 *262:8 *399:52 0
53 *262:15 *993:RESET_B 0
54 *262:15 *399:52 0.000112333
55 *262:59 *399:52 0
56 *274:10 *399:10 0.000129595
57 *302:14 *399:10 0
58 *302:14 *399:21 0
59 *304:10 *993:RESET_B 0.000110829
60 *304:10 *996:RESET_B 7.97665e-05
61 *307:8 *399:29 0
62 *307:14 *399:21 0
63 *310:14 *399:21 0
64 *321:14 *993:RESET_B 9.57462e-05
65 *321:14 *996:RESET_B 0.000112108
66 *344:8 *399:29 0
67 *344:8 *399:52 0
68 *354:36 *399:29 0
69 *354:36 *399:52 0
*RES
1 *1059:X *399:10 43.605 
2 *399:10 *999:RESET_B 40 
3 *399:10 *399:21 27.0246 
4 *399:21 *399:29 44.1612 
5 *399:29 *399:31 2.266 
6 *399:31 *1002:RESET_B 23.9964 
7 *399:31 *1001:RESET_B 20 
8 *399:29 *1000:RESET_B 20 
9 *399:21 *399:52 26.8083 
10 *399:52 *399:56 22.575 
11 *399:56 *996:RESET_B 20.7519 
12 *399:56 *993:RESET_B 23.3475 
13 *399:52 *399:74 26.5302 
14 *399:74 *997:RESET_B 22.9149 
15 *399:74 *992:RESET_B 21.1845 
*END

*D_NET *400 0.016642
*CONN
*I *1059:A I *D sg13cmos5l_buf_1
*I *994:RESET_B I *D sg13cmos5l_dfrbpq_1
*I *995:RESET_B I *D sg13cmos5l_dfrbpq_1
*I *1013:RESET_B I *D sg13cmos5l_dfrbpq_1
*I *984:RESET_B I *D sg13cmos5l_dfrbpq_1
*I *983:RESET_B I *D sg13cmos5l_dfrbpq_1
*I *982:RESET_B I *D sg13cmos5l_dfrbpq_1
*I *981:RESET_B I *D sg13cmos5l_dfrbpq_1
*I *1060:X O *D sg13cmos5l_buf_1
*CAP
1 *1059:A 0.000269453
2 *994:RESET_B 0.000497142
3 *995:RESET_B 0
4 *1013:RESET_B 0.000178072
5 *984:RESET_B 0
6 *983:RESET_B 0
7 *982:RESET_B 0
8 *981:RESET_B 3.97648e-05
9 *1060:X 0.000228668
10 *400:87 0.000649943
11 *400:71 0.000578023
12 *400:65 0.000983519
13 *400:61 0.000715366
14 *400:46 0.000763153
15 *400:33 0.00076051
16 *400:27 0.00108449
17 *400:16 0.000788345
18 *400:10 0.000494709
19 *400:10 *401:38 0.000130781
20 *400:10 *401:51 0.000502573
21 *400:33 *982:D 0
22 *400:33 *412:8 0.000129273
23 *400:61 *413:10 8.00842e-05
24 bn3 *400:71 0
25 *791:A *400:16 0
26 *867:A *400:10 0.000181508
27 *867:B *981:RESET_B 1.54008e-05
28 *867:B *400:16 0.000271956
29 *919:A *400:27 0
30 *919:B *400:27 8.02434e-05
31 *929:A1 *994:RESET_B 0
32 *981:CLK *400:16 0
33 *994:D *994:RESET_B 0.000175513
34 *1062:A *400:46 0.000121643
35 *1114:A *994:RESET_B 0
36 *1154:A *400:65 0
37 *1187:A *400:27 0.000176981
38 *3:30 *400:46 0.00036715
39 *3:30 *400:61 0
40 *5:32 *1013:RESET_B 0
41 *5:32 *400:61 0
42 *5:32 *400:65 0
43 *7:30 *400:61 0
44 *8:14 *1059:A 0.000111881
45 *26:10 *1059:A 0.000128406
46 *26:18 *994:RESET_B 0
47 *40:18 *994:RESET_B 0.000584925
48 *40:18 *400:87 0.000820569
49 *69:10 *994:RESET_B 0.000112426
50 *73:8 *994:RESET_B 0.000338245
51 *90:18 *400:16 0
52 *90:18 *400:27 0
53 *90:18 *400:33 0.000208142
54 *90:18 *400:46 0.000240027
55 *97:14 *400:71 0
56 *101:12 *994:RESET_B 0.00060678
57 *101:12 *400:87 0.000820154
58 *195:12 *1013:RESET_B 0.000252132
59 *195:12 *400:61 0.000175721
60 *195:12 *400:65 0.000360625
61 *206:16 *400:10 0
62 *254:17 *400:10 0
63 *258:35 *400:61 0
64 *302:14 *1059:A 0
65 *302:14 *400:33 0
66 *321:24 *400:61 0.000342648
67 *342:12 *400:71 0
68 *355:14 *1059:A 0.000555715
69 *355:14 *400:33 0.000559003
70 *360:26 *400:10 0
71 *384:52 *400:10 4.77425e-05
72 *385:14 *400:27 0
73 *385:31 *400:27 0.000112585
74 *399:10 *1059:A 0
*RES
1 *1060:X *400:10 43.1415 
2 *400:10 *400:16 22.9715 
3 *400:16 *981:RESET_B 20.4275 
4 *400:16 *400:27 24.5371 
5 *400:27 *400:33 23.9758 
6 *400:33 *982:RESET_B 20 
7 *400:33 *400:46 4.7998 
8 *400:46 *983:RESET_B 20 
9 *400:46 *400:61 43.5226 
10 *400:61 *400:65 2.6162 
11 *400:65 *400:71 44.7998 
12 *400:71 *984:RESET_B 20 
13 *400:65 *1013:RESET_B 21.7999 
14 *400:61 *400:87 23.811 
15 *400:87 *995:RESET_B 40 
16 *400:87 *994:RESET_B 46.8186 
17 *400:27 *1059:A 43.3269 
*END

*D_NET *401 0.0267222
*CONN
*I *986:RESET_B I *D sg13cmos5l_dfrbpq_1
*I *998:RESET_B I *D sg13cmos5l_dfrbpq_1
*I *1058:A I *D sg13cmos5l_buf_1
*I *1060:A I *D sg13cmos5l_buf_1
*I *1054:A I *D sg13cmos5l_buf_1
*I *1055:A I *D sg13cmos5l_buf_1
*I *1061:X O *D sg13cmos5l_buf_1
*CAP
1 *986:RESET_B 0.00100269
2 *998:RESET_B 0.000107586
3 *1058:A 0
4 *1060:A 3.34444e-05
5 *1054:A 0.000287007
6 *1055:A 0.000197836
7 *1061:X 0
8 *401:93 0.00203308
9 *401:68 0.00232802
10 *401:55 0.0012646
11 *401:51 0.00374126
12 *401:38 0.00157165
13 *401:32 0.00327315
14 *401:17 0.00199114
15 *401:4 0.000941188
16 *401:32 *438:10 0
17 *401:38 *438:40 0
18 *401:38 *438:53 0
19 *401:38 *449:48 0
20 *401:93 *762:A 0.000272391
21 *401:93 *438:77 0.000176295
22 bn5 *401:68 0
23 bn6 *401:68 0.000287256
24 *854:B *401:93 0
25 *856:A1 *1054:A 0
26 *856:A1 *401:32 0
27 *867:A *401:51 0
28 *892:B1 *986:RESET_B 0
29 *896:B *986:RESET_B 0.000144
30 *896:B *401:93 0
31 *901:B *401:93 0
32 *917:A *401:51 0.000557197
33 *926:A *401:68 0
34 *938:D *401:68 0
35 *975:D *401:17 0
36 *986:CLK *986:RESET_B 0
37 *998:CLK *401:68 0
38 *1149:A *986:RESET_B 0
39 *1152:A *986:RESET_B 0.000499566
40 *1176:A *401:51 0.000181276
41 *41:12 *401:32 0
42 *42:33 *401:93 0
43 *51:8 *401:32 0
44 *53:8 *1054:A 0
45 *95:8 *401:93 0
46 *95:30 *401:93 0
47 *97:22 *998:RESET_B 0.000143846
48 *103:22 *401:68 0
49 *120:30 *401:38 0
50 *122:14 *401:51 0.000343062
51 *128:33 *401:38 0
52 *171:8 *401:32 0
53 *171:8 *401:93 7.65627e-05
54 *171:10 *401:32 0
55 *175:43 *401:93 6.39133e-05
56 *186:41 *401:68 0.000931423
57 *186:47 *401:68 0.000875764
58 *198:54 *401:68 0.000237707
59 *202:39 *401:68 0
60 *204:10 *986:RESET_B 0
61 *216:14 *401:38 0
62 *216:24 *401:55 0
63 *216:56 *401:93 0
64 *240:16 *401:55 0
65 *255:8 *401:17 0
66 *255:52 *401:17 0
67 *255:62 *1054:A 0
68 *255:62 *401:17 0
69 *255:62 *401:32 0
70 *261:72 *998:RESET_B 0
71 *262:59 *401:68 0
72 *264:8 *401:68 0
73 *298:10 *401:68 0.000342647
74 *310:14 *401:68 0
75 *337:10 *1054:A 0
76 *355:32 *401:68 0
77 *360:14 *1054:A 0
78 *360:26 *401:32 0.000235658
79 *360:26 *401:38 0
80 *383:56 *401:68 0
81 *384:52 *1060:A 4.77425e-05
82 *385:39 *401:55 0.000252968
83 *385:39 *401:68 0.000523937
84 *386:29 *401:93 0
85 *386:68 *401:93 0
86 *386:75 *401:93 0
87 *386:83 *986:RESET_B 8.00842e-05
88 *386:96 *986:RESET_B 0.000176201
89 *386:111 *986:RESET_B 0
90 *389:30 *401:32 0.000158999
91 *389:30 *401:93 7.53861e-05
92 *389:34 *401:32 0.000288097
93 *392:10 *401:32 0
94 *392:35 *401:38 0.000344178
95 *394:10 *1054:A 0
96 *394:10 *401:17 0
97 *395:88 *401:38 0
98 *400:10 *401:38 0.000130781
99 *400:10 *401:51 0.000502573
*RES
1 *1061:X *401:4 20 
2 *401:4 *1055:A 22.3381 
3 *401:4 *401:17 28.1061 
4 *401:17 *1054:A 42.7398 
5 *401:17 *401:32 30.2382 
6 *401:32 *401:38 31.7067 
7 *401:38 *1060:A 40.3193 
8 *401:38 *401:51 24.5526 
9 *401:51 *401:55 35.4603 
10 *401:55 *1058:A 40 
11 *401:51 *401:68 46.8418 
12 *401:68 *998:RESET_B 40.9682 
13 *401:32 *401:93 49.8571 
14 *401:93 *986:RESET_B 29.5584 
*END

*D_NET *402 0.000302136
*CONN
*I *1171:A I *D sg13cmos5l_buf_1
*I *1137:X O *D sg13cmos5l_dlygate4sd3_1
*CAP
1 *1171:A 0.000151068
2 *1137:X 0.000151068
3 *1137:A *1171:A 0
*RES
1 *1137:X *1171:A 41.6171 
*END

*D_NET *403 0.00741607
*CONN
*I *961:A I *D sg13cmos5l_nand2_1
*I *1138:X O *D sg13cmos5l_dlygate4sd3_1
*CAP
1 *961:A 0
2 *1138:X 0.000449064
3 *403:20 0.00140969
4 *403:14 0.00185875
5 *403:20 *405:35 8.00842e-05
6 *804:B1 *403:20 0
7 *804:A2 *403:20 0.000308025
8 *890:A *403:14 0
9 *890:C *403:14 0
10 *908:C *403:14 0.000135161
11 *1040:A *403:20 0.000183355
12 *118:14 *403:20 0
13 *118:42 *403:20 0
14 *123:16 *403:20 0
15 *128:25 *403:14 6.03998e-06
16 *128:33 *403:14 0
17 *170:14 *403:20 0.000557435
18 *216:14 *403:20 0.00119977
19 *216:56 *403:14 0
20 *223:8 *403:20 0.000396426
21 *384:21 *403:20 0
22 *384:31 *403:20 0
23 *385:56 *403:20 0.000664933
24 *386:21 *403:14 0.000111358
25 *389:10 *403:14 5.59766e-05
26 *391:103 *403:20 0
*RES
1 *1138:X *403:14 44.1818 
2 *403:14 *403:20 37.201 
3 *403:20 *961:A 20 
*END

*D_NET *404 0.000264794
*CONN
*I *1113:A I *D sg13cmos5l_dlygate4sd3_1
*I *995:Q O *D sg13cmos5l_dfrbpq_1
*CAP
1 *1113:A 9.22427e-05
2 *995:Q 9.22427e-05
3 *767:A *1113:A 8.03091e-05
4 *927:A2 *1113:A 0
*RES
1 *995:Q *1113:A 41.133 
*END

*D_NET *405 0.00607781
*CONN
*I *964:A I *D sg13cmos5l_nand2_1
*I *966:B I *D sg13cmos5l_nand3_1
*I *1139:X O *D sg13cmos5l_dlygate4sd3_1
*CAP
1 *964:A 0
2 *966:B 0.00133743
3 *1139:X 0
4 *405:35 0.000647285
5 *405:4 0.00198471
6 *966:B *966:C 0.000501342
7 *803:B1 *405:35 0
8 *922:C *966:B 0
9 *922:C *405:35 0
10 *963:B *966:B 0.000144831
11 *964:B *405:35 0
12 *966:A *966:B 0.000242236
13 *979:CLK *966:B 0
14 *1042:A *405:35 4.77425e-05
15 *1069:A *966:B 0.000209796
16 *13:12 *405:35 0.000342145
17 *89:12 *966:B 0
18 *108:18 *966:B 0
19 *108:18 *405:35 0
20 *109:12 *966:B 0
21 *134:10 *405:35 7.9225e-05
22 *223:8 *405:35 0
23 *224:14 *966:B 0
24 *240:10 *405:35 7.65627e-05
25 *243:22 *966:B 0
26 *244:28 *966:B 0
27 *247:10 *405:35 0
28 *250:10 *966:B 0.000208879
29 *384:31 *405:35 0.000128662
30 *385:85 *405:35 4.68833e-05
31 *388:12 *966:B 0
32 *403:20 *405:35 8.00842e-05
*RES
1 *1139:X *405:4 20 
2 *405:4 *966:B 33.0048 
3 *405:4 *405:35 46.5714 
4 *405:35 *964:A 20 
*END

*D_NET *406 0.000921791
*CONN
*I *1012:D I *D sg13cmos5l_dfrbpq_1
*I *1140:X O *D sg13cmos5l_dlygate4sd3_1
*CAP
1 *1012:D 0.000152022
2 *1140:X 0.000204433
3 *406:10 0.000356455
4 *406:10 *407:16 0
5 *946:A1 *1012:D 0
6 *244:28 *1012:D 0.00020888
7 *354:10 *406:10 0
8 *397:45 *406:10 0
*RES
1 *1140:X *406:10 41.9055 
2 *406:10 *1012:D 41.4008 
*END

*D_NET *407 0.0085159
*CONN
*I *1198:A I *D sg13cmos5l_buf_1
*I *965:B1 I *D sg13cmos5l_o21ai_1
*I *1141:X O *D sg13cmos5l_dlygate4sd3_1
*CAP
1 *1198:A 0.0017919
2 *965:B1 0
3 *1141:X 0
4 *407:16 0.00077846
5 *407:4 0.00257036
6 *1005:RESET_B *407:16 0.000212456
7 *1029:A *1198:A 0
8 *1088:A *1198:A 8.02431e-05
9 *1095:A *407:16 0.00024217
10 *1182:A *1198:A 4.77425e-05
11 *19:10 *1198:A 0
12 *21:10 *1198:A 0
13 *22:8 *1198:A 0.000209505
14 *88:16 *407:16 7.58771e-05
15 *108:18 *407:16 0
16 *109:12 *407:16 0
17 *224:14 *407:16 1.54008e-05
18 *243:10 *407:16 0
19 *245:28 *1198:A 0.000905991
20 *246:14 *1198:A 0
21 *246:14 *407:16 0
22 *249:10 *407:16 0
23 *256:101 *407:16 0
24 *277:10 *1198:A 0
25 *340:10 *1198:A 0.000177191
26 *372:12 *1198:A 0.000500981
27 *372:12 *407:16 0.000274627
28 *385:66 *407:16 2.20966e-05
29 *396:23 *1198:A 0
30 *396:36 *1198:A 0
31 *396:103 *1198:A 0
32 *397:45 *407:16 0.000610897
33 *406:10 *407:16 0
*RES
1 *1141:X *407:4 20 
2 *407:4 *407:16 49.7129 
3 *407:16 *965:B1 20 
4 *407:4 *1198:A 37.4276 
*END

*D_NET *408 0.00289794
*CONN
*I *966:C I *D sg13cmos5l_nand3_1
*I *1142:X O *D sg13cmos5l_dlygate4sd3_1
*CAP
1 *966:C 0.000645437
2 *1142:X 0.000311072
3 *408:10 0.000956509
4 *966:B *966:C 0.000501342
5 *1009:D *966:C 0
6 *89:12 *966:C 0.000306919
7 *243:22 *966:C 0
8 *244:28 *408:10 0.000176658
9 *250:10 *408:10 0
10 *305:26 *408:10 0
11 *397:41 *408:10 0
12 *398:87 *966:C 0
*RES
1 *1142:X *408:10 43.0179 
2 *408:10 *966:C 46.6126 
*END

*D_NET *409 0.00162772
*CONN
*I *1014:D I *D sg13cmos5l_dfrbpq_1
*I *1143:X O *D sg13cmos5l_dlygate4sd3_1
*CAP
1 *1014:D 0
2 *1143:X 0.000282776
3 *409:10 0.000282776
4 *85:10 *409:10 0.000502371
5 *305:26 *409:10 0
6 *369:89 *409:10 0.000177203
7 *397:41 *409:10 0.000382594
*RES
1 *1143:X *409:10 43.7595 
2 *409:10 *1014:D 40 
*END

*D_NET *410 0.000290577
*CONN
*I *1169:A I *D sg13cmos5l_buf_1
*I *1144:X O *D sg13cmos5l_dlygate4sd3_1
*CAP
1 *1169:A 0.000145289
2 *1144:X 0.000145289
*RES
1 *1144:X *1169:A 41.6171 
*END

*D_NET *411 0.00555788
*CONN
*I *882:C I *D sg13cmos5l_nand3_1
*I *875:C I *D sg13cmos5l_nand3b_1
*I *784:A I *D sg13cmos5l_inv_1
*I *888:C I *D sg13cmos5l_nand3b_1
*I *1145:X O *D sg13cmos5l_dlygate4sd3_1
*CAP
1 *882:C 0
2 *875:C 0
3 *784:A 0
4 *888:C 3.6966e-05
5 *1145:X 0.00033242
6 *411:35 0.000255855
7 *411:25 0.000700499
8 *411:23 0.000707373
9 *411:8 0.000632114
10 *411:8 *419:12 0.000341119
11 *411:23 *419:12 0.000659397
12 *875:B *411:35 4.77425e-05
13 *888:A_N *888:C 1.54556e-05
14 *892:A2 *411:25 0.000112651
15 *901:B *888:C 0
16 *189:14 *411:35 0.000128406
17 *193:10 *411:35 0.000122871
18 *196:10 *411:8 0
19 *196:31 *411:23 0
20 *209:25 *411:8 0
21 *209:33 *411:8 0
22 *213:62 *411:25 0.000208025
23 *254:167 *411:8 0
24 *254:167 *411:23 0
25 *254:173 *411:8 0
26 *263:34 *411:35 0.000237672
27 *321:34 *411:25 0
28 *384:73 *411:35 0
29 *386:96 *888:C 0
30 *386:111 *411:25 0.000112558
31 *390:34 *411:25 0
32 *390:40 *411:23 0.000766808
33 *392:84 *411:25 1.54008e-05
34 *392:84 *411:35 0.000124551
35 *392:97 *411:25 0
*RES
1 *1145:X *411:8 43.5638 
2 *411:8 *888:C 40.3193 
3 *411:8 *411:23 24.6247 
4 *411:23 *411:25 3.9964 
5 *411:25 *411:35 42.9664 
6 *411:35 *784:A 20 
7 *411:25 *875:C 20 
8 *411:23 *882:C 20 
*END

*D_NET *412 0.00106254
*CONN
*I *982:D I *D sg13cmos5l_dfrbpq_1
*I *1146:X O *D sg13cmos5l_dlygate4sd3_1
*CAP
1 *982:D 0.000182951
2 *1146:X 0.000113451
3 *412:8 0.000296401
4 *1041:A *982:D 0
5 *90:18 *982:D 0
6 *302:14 *412:8 0.000340463
7 *400:33 *982:D 0
8 *400:33 *412:8 0.000129273
*RES
1 *1146:X *412:8 41.5862 
2 *412:8 *982:D 41.5291 
*END

*D_NET *413 0.00309473
*CONN
*I *1190:A I *D sg13cmos5l_buf_1
*I *887:B1 I *D sg13cmos5l_o21ai_1
*I *1147:X O *D sg13cmos5l_dlygate4sd3_1
*CAP
1 *1190:A 0.000481862
2 *887:B1 0
3 *1147:X 0.000937979
4 *413:10 0.000456118
5 *3:30 *1190:A 0
6 *3:30 *413:10 0
7 *5:32 *1190:A 0
8 *90:18 *1190:A 0
9 *90:18 *413:10 0.000208058
10 *188:14 *413:10 0
11 *254:59 *413:10 0
12 *321:24 *413:10 0.000930629
13 *379:21 *413:10 0
14 *400:61 *413:10 8.00842e-05
*RES
1 *1147:X *413:10 45.7062 
2 *413:10 *887:B1 40 
3 *1147:X *1190:A 44.2642 
*END

*D_NET *414 0.00207245
*CONN
*I *889:B1 I *D sg13cmos5l_o21ai_1
*I *1148:X O *D sg13cmos5l_dlygate4sd3_1
*CAP
1 *889:B1 0.000137861
2 *1148:X 0.00034291
3 *414:8 0.000480771
4 *1149:A *889:B1 0.000240328
5 *196:10 *414:8 0.000340536
6 *196:31 *414:8 0.000289715
7 *201:12 *889:B1 0.000240328
8 *254:167 *414:8 0
9 *392:97 *414:8 0
*RES
1 *1148:X *414:8 44.0582 
2 *414:8 *889:B1 41.6171 
*END

*D_NET *415 0.00140668
*CONN
*I *1097:A I *D sg13cmos5l_dlygate4sd3_1
*I *996:Q O *D sg13cmos5l_dfrbpq_1
*CAP
1 *1097:A 0.00070334
2 *996:Q 0.00070334
3 *992:CLK *1097:A 0
4 *309:12 *1097:A 0
5 *342:8 *1097:A 0
6 *372:117 *1097:A 0
*RES
1 *996:Q *1097:A 47.2306 
*END

*D_NET *416 9.84082e-05
*CONN
*I *985:D I *D sg13cmos5l_dfrbpq_1
*I *1149:X O *D sg13cmos5l_dlygate4sd3_1
*CAP
1 *985:D 4.92041e-05
2 *1149:X 4.92041e-05
3 *892:A2 *985:D 0
*RES
1 *1149:X *985:D 40.5974 
*END

*D_NET *417 0.00167643
*CONN
*I *1194:A I *D sg13cmos5l_buf_1
*I *906:B1 I *D sg13cmos5l_o21ai_1
*I *1150:X O *D sg13cmos5l_dlygate4sd3_1
*CAP
1 *1194:A 5.54526e-05
2 *906:B1 0.000612003
3 *1150:X 0.000155359
4 *417:6 0.000822814
5 *906:B1 *988:D 0
6 *906:B1 *430:14 0
7 *1194:A *430:14 0
8 *417:6 *988:D 0
9 *988:RESET_B *906:B1 0
10 *989:CLK *906:B1 0
11 *1159:A *906:B1 0
12 *214:16 *906:B1 1.54008e-05
13 *215:8 *906:B1 1.54008e-05
14 *257:22 *906:B1 0
15 *394:53 *906:B1 0
*RES
1 *1150:X *417:6 22.0806 
2 *417:6 *906:B1 25.9946 
3 *417:6 *1194:A 20.7519 
*END

*D_NET *418 0.000329265
*CONN
*I *989:D I *D sg13cmos5l_dfrbpq_1
*I *1151:X O *D sg13cmos5l_dlygate4sd3_1
*CAP
1 *989:D 0.00012964
2 *1151:X 0.00012964
3 *989:D *424:14 6.9986e-05
4 *1167:A *989:D 0
5 *263:16 *989:D 0
*RES
1 *1151:X *989:D 41.6583 
*END

*D_NET *419 0.00540787
*CONN
*I *1192:A I *D sg13cmos5l_buf_1
*I *897:B1 I *D sg13cmos5l_o21ai_1
*I *1152:X O *D sg13cmos5l_dlygate4sd3_1
*CAP
1 *1192:A 0.000534217
2 *897:B1 0
3 *1152:X 0
4 *419:25 0.00117634
5 *419:12 0.000445184
6 *419:4 0.00108731
7 *766:A *1192:A 0
8 *897:A2 *419:12 1.54556e-05
9 *899:B1 *419:12 1.54556e-05
10 *901:B *419:12 0
11 *985:CLK *419:25 0
12 *1191:A *1192:A 0
13 *40:18 *419:25 2.25909e-05
14 *62:10 *419:25 0.000143374
15 *101:12 *419:25 0
16 *190:31 *419:12 0
17 *254:167 *419:12 0
18 *254:167 *419:25 0
19 *303:14 *1192:A 0
20 *303:45 *419:25 0.000822524
21 *314:24 *1192:A 0
22 *379:36 *1192:A 0.000144899
23 *411:8 *419:12 0.000341119
24 *411:23 *419:12 0.000659397
*RES
1 *1152:X *419:4 20 
2 *419:4 *419:12 45.0882 
3 *419:12 *897:B1 20 
4 *419:4 *419:25 46.5096 
5 *419:25 *1192:A 24.6453 
*END

*D_NET *420 0.000462273
*CONN
*I *987:D I *D sg13cmos5l_dfrbpq_1
*I *1153:X O *D sg13cmos5l_dlygate4sd3_1
*CAP
1 *987:D 0.000231136
2 *1153:X 0.000231136
3 *987:D *425:8 0
4 *1153:A *987:D 0
5 *1157:A *987:D 0
*RES
1 *1153:X *987:D 42.3387 
*END

*D_NET *421 0.00363453
*CONN
*I *1189:A I *D sg13cmos5l_buf_1
*I *881:B1 I *D sg13cmos5l_o21ai_1
*I *1154:X O *D sg13cmos5l_dlygate4sd3_1
*CAP
1 *1189:A 0.000124143
2 *881:B1 0
3 *1154:X 0
4 *421:12 0.000766657
5 *421:4 0.000890799
6 *421:12 *873:B1 0
7 *421:12 *1188:A 0
8 *995:D *1189:A 1.54556e-05
9 *995:D *421:12 0.000241407
10 *1168:A *421:12 0.00024211
11 *25:10 *1189:A 6.49135e-05
12 *25:10 *421:12 0.000628715
13 *26:18 *1189:A 0
14 *26:18 *421:12 0
15 *202:39 *421:12 0.000660327
*RES
1 *1154:X *421:4 20 
2 *421:4 *421:12 48.5799 
3 *421:12 *881:B1 20 
4 *421:4 *1189:A 21.6274 
*END

*D_NET *422 0.00253012
*CONN
*I *884:B1 I *D sg13cmos5l_o21ai_1
*I *1155:X O *D sg13cmos5l_dlygate4sd3_1
*CAP
1 *884:B1 0.000279738
2 *1155:X 0.000905277
3 *422:10 0.00118501
4 *884:A2 *884:B1 1.54556e-05
5 *892:A2 *884:B1 0
6 *984:CLK *422:10 0
7 *1156:A *884:B1 0
8 *6:14 *884:B1 0
9 *97:14 *422:10 0
10 *101:12 *422:10 0
11 *314:24 *422:10 0
12 *379:36 *884:B1 0
13 *379:36 *422:10 0
14 *394:92 *884:B1 0.000144633
*RES
1 *1155:X *422:10 47.2512 
2 *422:10 *884:B1 42.6986 
*END

*D_NET *423 9.45957e-05
*CONN
*I *984:D I *D sg13cmos5l_dfrbpq_1
*I *1156:X O *D sg13cmos5l_dlygate4sd3_1
*CAP
1 *984:D 4.72978e-05
2 *1156:X 4.72978e-05
*RES
1 *1156:X *984:D 40.5974 
*END

*D_NET *424 0.0058038
*CONN
*I *1193:A I *D sg13cmos5l_buf_1
*I *902:B1 I *D sg13cmos5l_o21ai_1
*I *1157:X O *D sg13cmos5l_dlygate4sd3_1
*CAP
1 *1193:A 0
2 *902:B1 0
3 *1157:X 0
4 *424:29 0.000309899
5 *424:14 0.00134388
6 *424:4 0.00165378
7 *424:14 *910:B1 0.000144179
8 *424:14 *911:B1 0
9 *424:14 *991:D 0
10 *424:14 *425:8 0
11 *424:29 *425:8 0
12 *911:A1 *424:14 0
13 *988:CLK *424:14 0.000241908
14 *989:RESET_B *424:14 0
15 *989:D *424:14 6.9986e-05
16 *1026:A *424:14 0
17 *1150:A *424:14 0
18 *1150:A *424:29 0
19 *1167:A *424:14 0
20 *31:8 *424:29 0.000609684
21 *32:8 *424:29 0
22 *66:16 *424:14 4.7813e-05
23 *205:22 *424:14 0
24 *218:12 *424:14 0.000274348
25 *263:16 *424:14 0
26 *378:43 *424:14 0.000553246
27 *386:35 *424:14 0.00055508
28 *394:53 *424:14 0
29 *394:66 *424:29 0
*RES
1 *1157:X *424:4 20 
2 *424:4 *424:14 34.3788 
3 *424:14 *902:B1 40 
4 *424:4 *424:29 44.0685 
5 *424:29 *1193:A 20 
*END

*D_NET *425 0.00296711
*CONN
*I *903:B1 I *D sg13cmos5l_o21ai_1
*I *1158:X O *D sg13cmos5l_dlygate4sd3_1
*CAP
1 *903:B1 0.000826624
2 *1158:X 0.000423843
3 *425:8 0.00125047
4 *903:B1 *430:14 0
5 *903:B1 *433:28 0
6 *987:RESET_B *425:8 0
7 *987:D *425:8 0
8 *1151:A *425:8 0
9 *1153:A *425:8 0
10 *1157:A *425:8 0
11 *1159:A *903:B1 8.00375e-05
12 *209:33 *903:B1 1.54008e-05
13 *257:10 *903:B1 0
14 *257:10 *425:8 0
15 *257:12 *903:B1 0
16 *257:22 *903:B1 0
17 *263:16 *425:8 0.000370738
18 *363:8 *903:B1 0
19 *424:14 *425:8 0
20 *424:29 *425:8 0
*RES
1 *1158:X *425:8 44.429 
2 *425:8 *903:B1 48.24 
*END

*D_NET *426 0.00102887
*CONN
*I *1101:A I *D sg13cmos5l_dlygate4sd3_1
*I *997:Q O *D sg13cmos5l_dfrbpq_1
*CAP
1 *1101:A 0.000380818
2 *997:Q 0.000380818
3 *103:14 *1101:A 0
4 *354:36 *1101:A 5.75721e-05
5 *383:105 *1101:A 0.000209664
6 *399:52 *1101:A 0
*RES
1 *997:Q *1101:A 43.914 
*END

*D_NET *427 0.000112997
*CONN
*I *988:D I *D sg13cmos5l_dfrbpq_1
*I *1159:X O *D sg13cmos5l_dlygate4sd3_1
*CAP
1 *988:D 5.64984e-05
2 *1159:X 5.64984e-05
3 *906:B1 *988:D 0
4 *417:6 *988:D 0
*RES
1 *1159:X *988:D 40.5974 
*END

*D_NET *428 0.000315029
*CONN
*I *1170:A I *D sg13cmos5l_buf_1
*I *1160:X O *D sg13cmos5l_dlygate4sd3_1
*CAP
1 *1170:A 0.000157514
2 *1160:X 0.000157514
3 *349:10 *1170:A 0
*RES
1 *1160:X *1170:A 41.6171 
*END

*D_NET *429 0.000641243
*CONN
*I *1061:A I *D sg13cmos5l_buf_1
*I *1161:X O *D sg13cmos5l_dlygate4sd3_1
*CAP
1 *1061:A 0
2 *1161:X 0.00025629
3 *429:8 0.00025629
4 *395:58 *429:8 0.000128663
*RES
1 *1161:X *429:8 43.3166 
2 *429:8 *1061:A 40 
*END

*D_NET *430 0.00444973
*CONN
*I *910:B1 I *D sg13cmos5l_o21ai_1
*I *1195:A I *D sg13cmos5l_buf_1
*I *1162:X O *D sg13cmos5l_dlygate4sd3_1
*CAP
1 *910:B1 0.000290026
2 *1195:A 0
3 *1162:X 0
4 *430:14 0.0014548
5 *430:6 0.00174483
6 *910:B1 *431:8 0
7 *903:B1 *430:14 0
8 *903:A1 *430:14 0
9 *906:B1 *430:14 0
10 *910:A2 *910:B1 8.00842e-05
11 *911:A1 *910:B1 0
12 *990:CLK *430:14 0
13 *1159:A *430:14 0
14 *1194:A *430:14 0
15 *209:33 *430:14 0
16 *217:8 *910:B1 0
17 *217:8 *430:14 0.000501633
18 *220:8 *910:B1 0.000234172
19 *257:22 *430:14 0
20 *364:8 *430:14 0
21 *365:12 *430:14 0
22 *424:14 *910:B1 0.000144179
*RES
1 *1162:X *430:6 40 
2 *430:6 *430:14 36.2534 
3 *430:14 *1195:A 20 
4 *430:6 *910:B1 43.3681 
*END

*D_NET *431 0.000280982
*CONN
*I *911:B1 I *D sg13cmos5l_o21ai_1
*I *1163:X O *D sg13cmos5l_dlygate4sd3_1
*CAP
1 *911:B1 3.21158e-05
2 *1163:X 8.44192e-05
3 *431:8 0.000116535
4 *910:B1 *431:8 0
5 *205:22 *911:B1 4.79124e-05
6 *205:22 *431:8 0
7 *424:14 *911:B1 0
*RES
1 *1163:X *431:8 40.8446 
2 *431:8 *911:B1 40.3193 
*END

*D_NET *432 0.000685868
*CONN
*I *990:D I *D sg13cmos5l_dfrbpq_1
*I *1164:X O *D sg13cmos5l_dlygate4sd3_1
*CAP
1 *990:D 0.000120457
2 *1164:X 0.000119994
3 *432:8 0.000240451
4 *907:B1 *432:8 0
5 *66:16 *432:8 7.5374e-05
6 *205:22 *990:D 0
7 *205:22 *432:8 0.000129592
8 *394:44 *990:D 0
*RES
1 *1164:X *432:8 41.339 
2 *432:8 *990:D 41.1845 
*END

*D_NET *433 0.00559349
*CONN
*I *1196:A I *D sg13cmos5l_buf_1
*I *914:B1 I *D sg13cmos5l_o21ai_1
*I *1165:X O *D sg13cmos5l_dlygate4sd3_1
*CAP
1 *1196:A 0.000503291
2 *914:B1 0.000106519
3 *1165:X 0.0014967
4 *433:28 0.00148912
5 *433:10 0.000617389
6 *433:10 *991:D 0.000110948
7 *903:B1 *433:28 0
8 *906:A1 *433:10 0.00012926
9 *914:A1 *914:B1 0
10 *914:A2 *914:B1 1.54008e-05
11 *1144:A *1196:A 0
12 *209:33 *433:28 0
13 *214:16 *433:10 0
14 *263:26 *914:B1 0
15 *363:8 *433:28 0
16 *365:12 *433:28 0
17 *378:62 *433:10 0.00112486
18 *394:53 *433:10 0
*RES
1 *1165:X *433:10 46.5405 
2 *433:10 *914:B1 40.9682 
3 *1165:X *433:28 48.755 
4 *433:28 *1196:A 45.5105 
*END

*D_NET *434 0.0015892
*CONN
*I *916:B1 I *D sg13cmos5l_o21ai_1
*I *1166:X O *D sg13cmos5l_dlygate4sd3_1
*CAP
1 *916:B1 0.00023993
2 *1166:X 0.000264191
3 *434:10 0.000504121
4 *916:A2 *916:B1 0.000177048
5 *1167:A *916:B1 0.000403912
6 *1167:A *434:10 0
7 *191:21 *916:B1 0
8 *191:21 *434:10 0
9 *205:22 *434:10 0
10 *222:8 *434:10 0
*RES
1 *1166:X *434:10 42.3072 
2 *434:10 *916:B1 42.6986 
*END

*D_NET *435 0.000581361
*CONN
*I *991:D I *D sg13cmos5l_dfrbpq_1
*I *1167:X O *D sg13cmos5l_dlygate4sd3_1
*CAP
1 *991:D 0.000235207
2 *1167:X 0.000235207
3 *911:A1 *991:D 0
4 *394:53 *991:D 0
5 *424:14 *991:D 0
6 *433:10 *991:D 0.000110948
*RES
1 *1167:X *991:D 42.5647 
*END

*D_NET *436 0.00281619
*CONN
*I *1188:A I *D sg13cmos5l_buf_1
*I *873:B1 I *D sg13cmos5l_o21ai_1
*I *1168:X O *D sg13cmos5l_dlygate4sd3_1
*CAP
1 *1188:A 0.000549873
2 *873:B1 0.000591253
3 *1168:X 0
4 *436:6 0.00114113
5 *873:A2 *873:B1 3.96571e-05
6 *3:18 *873:B1 0.0001292
7 *8:14 *1188:A 0
8 *25:10 *1188:A 0
9 *186:41 *873:B1 0
10 *186:41 *1188:A 0
11 *188:14 *873:B1 7.31538e-06
12 *202:39 *873:B1 0
13 *263:53 *1188:A 0.000175765
14 *265:12 *873:B1 0.000181995
15 *379:51 *873:B1 0
16 *421:12 *873:B1 0
17 *421:12 *1188:A 0
*RES
1 *1168:X *436:6 40 
2 *436:6 *873:B1 45.5285 
3 *436:6 *1188:A 44.9337 
*END

*D_NET *437 0.00258589
*CONN
*I *1135:A I *D sg13cmos5l_dlygate4sd3_1
*I *1051:A I *D sg13cmos5l_buf_1
*I *976:Q O *D sg13cmos5l_dfrbpq_1
*CAP
1 *1135:A 2.77263e-05
2 *1051:A 0
3 *976:Q 0.00017683
4 *437:20 0.000761594
5 *437:6 0.000966151
6 *437:20 *438:53 0
7 *757:A *437:20 0.000112426
8 *794:A *437:6 0
9 *794:A *437:20 0
10 *871:B *437:20 0
11 *879:C *437:20 0
12 *885:A *437:20 0.000251538
13 *1045:A *437:6 0
14 *102:12 *437:20 0
15 *129:25 *437:6 0
16 *129:35 *437:20 0
17 *186:10 *437:20 4.77425e-05
18 *193:10 *437:20 0.000241886
19 *213:24 *437:20 0
20 *378:8 *437:20 0
21 *378:22 *437:20 0
22 *384:71 *437:20 0
*RES
1 *976:Q *437:6 21.0187 
2 *437:6 *437:20 47.5911 
3 *437:20 *1051:A 20 
4 *437:6 *1135:A 20.3502 
*END

*D_NET *438 0.00854033
*CONN
*I *1127:A I *D sg13cmos5l_dlygate4sd3_1
*I *762:A I *D sg13cmos5l_inv_1
*I *912:D I *D sg13cmos5l_nor4_1
*I *871:D I *D sg13cmos5l_nor4_1
*I *885:D I *D sg13cmos5l_nor4_1
*I *798:B I *D sg13cmos5l_nor3_1
*I *908:B I *D sg13cmos5l_nor3_1
*I *900:D I *D sg13cmos5l_and4_1
*I *977:Q O *D sg13cmos5l_dfrbpq_1
*CAP
1 *1127:A 0.000205969
2 *762:A 0.00016655
3 *912:D 0
4 *871:D 0
5 *885:D 0
6 *798:B 0
7 *908:B 0
8 *900:D 6.89887e-05
9 *977:Q 0
10 *438:83 0.00011254
11 *438:77 0.000497725
12 *438:65 0.000264408
13 *438:53 0.000715799
14 *438:40 0.000680639
15 *438:31 0.000327551
16 *438:25 0.000608629
17 *438:10 0.000552878
18 *438:4 0.000398168
19 *757:A *438:65 0.000181438
20 *798:A *438:53 0
21 *849:A0 *1127:A 0.000338601
22 *850:B *438:25 4.77425e-05
23 *850:B *438:77 9.62561e-05
24 *852:A1 *900:D 0.000112426
25 *885:A *438:65 0.000133661
26 *885:B *438:65 0
27 *900:C *900:D 1.54008e-05
28 *1052:A *438:25 7.98669e-05
29 *41:12 *438:10 0.000448514
30 *42:16 *1127:A 0
31 *42:22 *438:31 0.000183564
32 *42:33 *438:77 0
33 *95:30 *762:A 8.00842e-05
34 *102:12 *438:65 0.000111248
35 *129:25 *438:53 0.000240217
36 *171:42 *900:D 0
37 *171:42 *1127:A 0
38 *171:52 *438:10 0
39 *186:10 *438:53 4.77425e-05
40 *186:10 *438:65 0.000234176
41 *198:8 *438:65 1.54556e-05
42 *219:54 *762:A 0
43 *251:8 *438:65 0
44 *302:28 *438:65 0
45 *345:8 *438:40 0.000181525
46 *345:8 *438:53 0.000288589
47 *360:14 *438:83 0.000182167
48 *360:26 *438:31 0.000289715
49 *360:26 *438:40 0
50 *360:26 *438:53 0
51 *360:26 *438:77 0
52 *391:18 *438:10 0
53 *391:18 *438:25 0
54 *391:25 *438:25 0
55 *391:29 *762:A 0
56 *391:35 *438:83 0
57 *391:55 *438:83 0
58 *392:18 *438:25 0
59 *392:35 *438:40 0.000183404
60 *401:32 *438:10 0
61 *401:38 *438:40 0
62 *401:38 *438:53 0
63 *401:93 *762:A 0.000272391
64 *401:93 *438:77 0.000176295
65 *437:20 *438:53 0
*RES
1 *977:Q *438:4 20 
2 *438:4 *438:10 22.8943 
3 *438:10 *900:D 40.7519 
4 *438:10 *438:25 22.8016 
5 *438:25 *438:31 21.6583 
6 *438:31 *908:B 40 
7 *438:31 *438:40 2.3278 
8 *438:40 *798:B 40 
9 *438:40 *438:53 24.3466 
10 *438:53 *438:65 43.193 
11 *438:65 *885:D 20 
12 *438:53 *871:D 20 
13 *438:25 *438:77 2.0497 
14 *438:77 *438:83 41.339 
15 *438:83 *912:D 20 
16 *438:77 *762:A 21.8334 
17 *438:4 *1127:A 22.266 
*END

*D_NET *439 0.00314226
*CONN
*I *809:A_N I *D sg13cmos5l_nand2b_1
*I *1079:A I *D sg13cmos5l_dlygate4sd3_1
*I *967:Q O *D sg13cmos5l_dfrbpq_1
*CAP
1 *809:A_N 0
2 *1079:A 0
3 *967:Q 0.000191155
4 *439:25 0.000590586
5 *439:8 0.000781741
6 *439:25 *809:B 4.77425e-05
7 *816:B1 *439:8 1.54556e-05
8 *816:B1 *439:25 8.03089e-05
9 *822:B *439:25 0
10 *824:B_N *439:8 0
11 *44:12 *439:25 0
12 *91:8 *439:25 7.51285e-05
13 *135:34 *439:25 0.00012816
14 *135:50 *439:25 0.000550484
15 *135:58 *439:25 0
16 *140:8 *439:25 0.000446855
17 *282:31 *439:8 0
18 *282:31 *439:25 0
19 *285:29 *439:25 0
20 *323:36 *439:25 0.00023464
*RES
1 *967:Q *439:8 21.751 
2 *439:8 *1079:A 20 
3 *439:8 *439:25 47.4572 
4 *439:25 *809:A_N 20 
*END

*D_NET *440 0.00635086
*CONN
*I *809:B I *D sg13cmos5l_nand2b_1
*I *1081:A I *D sg13cmos5l_dlygate4sd3_1
*I *968:Q O *D sg13cmos5l_dfrbpq_1
*CAP
1 *809:B 0.000100148
2 *1081:A 0
3 *968:Q 0.000318119
4 *440:27 0.00165148
5 *440:12 0.00186945
6 *440:27 *442:8 0
7 *966:A *440:12 1.54556e-05
8 *966:A *440:27 0
9 *979:CLK *440:12 0
10 *89:12 *440:12 0
11 *110:10 *440:27 0
12 *135:28 *440:27 0
13 *135:58 *809:B 4.77425e-05
14 *135:117 *809:B 0
15 *138:23 *440:27 0
16 *140:8 *440:27 0
17 *149:12 *440:27 0.00130508
18 *259:44 *440:12 0
19 *259:44 *440:27 0
20 *285:10 *440:27 0
21 *285:12 *440:27 0
22 *285:29 *440:27 0.000980241
23 *398:68 *440:12 1.54008e-05
24 *439:25 *809:B 4.77425e-05
*RES
1 *968:Q *440:12 23.1621 
2 *440:12 *1081:A 20 
3 *440:12 *440:27 36.789 
4 *440:27 *809:B 40.9682 
*END

*D_NET *441 0.00166959
*CONN
*I *1115:A I *D sg13cmos5l_dlygate4sd3_1
*I *810:A I *D sg13cmos5l_nor4_1
*I *969:Q O *D sg13cmos5l_dfrbpq_1
*CAP
1 *1115:A 2.77263e-05
2 *810:A 0.000445278
3 *969:Q 0.000179103
4 *441:8 0.000652108
5 *810:D *810:A 0
6 *816:B1 *810:A 0
7 *44:12 *810:A 0
8 *141:16 *810:A 8.0216e-05
9 *143:10 *441:8 0
10 *256:45 *810:A 0
11 *256:45 *441:8 0.000285159
*RES
1 *969:Q *441:8 22.2454 
2 *441:8 *810:A 23.618 
3 *441:8 *1115:A 20.3502 
*END

*D_NET *442 0.000919243
*CONN
*I *1076:A I *D sg13cmos5l_dlygate4sd3_1
*I *970:Q O *D sg13cmos5l_dfrbpq_1
*CAP
1 *1076:A 3.46921e-05
2 *970:Q 0.000216926
3 *442:8 0.000251618
4 *110:10 *442:8 0
5 *135:28 *442:8 0.000287672
6 *138:51 *442:8 0
7 *156:10 *442:8 0
8 *290:16 *442:8 0.000128334
9 *440:27 *442:8 0
*RES
1 *970:Q *442:8 42.8222 
2 *442:8 *1076:A 40.3193 
*END

*D_NET *443 0.00455456
*CONN
*I *840:A I *D sg13cmos5l_nand4_1
*I *837:A I *D sg13cmos5l_nand3_1
*I *1125:A I *D sg13cmos5l_dlygate4sd3_1
*I *808:A I *D sg13cmos5l_or4_1
*I *971:Q O *D sg13cmos5l_dfrbpq_1
*CAP
1 *840:A 7.77729e-05
2 *837:A 0
3 *1125:A 0.000211377
4 *808:A 3.85116e-05
5 *971:Q 0.00076051
6 *443:33 0.000571715
7 *443:12 0.000693964
8 *443:8 0.0011334
9 *840:A *840:B 4.77425e-05
10 *443:12 *808:B 0.000694395
11 *443:12 *840:B 0.000181608
12 *823:A2 *1125:A 0
13 *838:B *443:33 0
14 *840:D *443:8 0
15 *843:A2 *443:33 0
16 *1119:A *840:A 0
17 *1121:A *443:33 0
18 *1124:A *443:8 0
19 *24:26 *1125:A 0
20 *48:8 *443:12 0
21 *139:10 *808:A 0
22 *139:10 *443:33 0.00012816
23 *160:12 *443:8 0
24 *164:8 *443:12 0
25 *164:8 *443:33 0
26 *165:8 *840:A 1.54008e-05
27 *255:22 *443:8 0
28 *332:30 *443:12 0
29 *333:10 *443:8 0
30 *334:30 *443:8 0
*RES
1 *971:Q *443:8 27.622 
2 *443:8 *443:12 24.5526 
3 *443:12 *808:A 40.3193 
4 *443:12 *443:33 23.9449 
5 *443:33 *1125:A 21.5518 
6 *443:33 *837:A 20 
7 *443:8 *840:A 20.7519 
*END

*D_NET *444 0.00264981
*CONN
*I *1123:A I *D sg13cmos5l_dlygate4sd3_1
*I *808:B I *D sg13cmos5l_or4_1
*I *840:B I *D sg13cmos5l_nand4_1
*I *972:Q O *D sg13cmos5l_dfrbpq_1
*CAP
1 *1123:A 0.000122543
2 *808:B 0.000261127
3 *840:B 6.1089e-05
4 *972:Q 0
5 *444:8 0.000467424
6 *444:4 0.000267751
7 *840:A *840:B 4.77425e-05
8 *840:D *1123:A 0
9 *840:D *444:8 0.000241979
10 *162:10 *1123:A 0
11 *326:12 *808:B 7.52158e-05
12 *326:12 *840:B 0.000181192
13 *328:21 *808:B 0
14 *328:21 *840:B 4.77425e-05
15 *443:12 *808:B 0.000694395
16 *443:12 *840:B 0.000181608
*RES
1 *972:Q *444:4 20 
2 *444:4 *444:8 21.6171 
3 *444:8 *840:B 41.1639 
4 *444:8 *808:B 43.3166 
5 *444:4 *1123:A 21.3493 
*END

*D_NET *445 0.00213098
*CONN
*I *808:C I *D sg13cmos5l_or4_1
*I *1120:A I *D sg13cmos5l_dlygate4sd3_1
*I *973:Q O *D sg13cmos5l_dfrbpq_1
*CAP
1 *808:C 0
2 *1120:A 0
3 *973:Q 0
4 *445:25 0.000603582
5 *445:12 0.000349393
6 *445:4 0.000952975
7 *445:25 *446:10 0
8 *844:A *445:12 0
9 *844:A *445:25 0
10 *976:CLK *445:12 0
11 *980:RESET_B *445:12 0
12 *980:RESET_B *445:25 0
13 *1121:A *445:25 0.000209572
14 *24:26 *445:12 0
15 *135:117 *445:12 1.54556e-05
16 *148:30 *445:12 0
17 *167:10 *445:25 0
18 *326:31 *445:25 0
19 *329:10 *445:25 0
20 *395:80 *445:25 0
*RES
1 *973:Q *445:4 20 
2 *445:4 *445:12 43.6977 
3 *445:12 *1120:A 20 
4 *445:4 *445:25 46.1749 
5 *445:25 *808:C 20 
*END

*D_NET *446 0.000896592
*CONN
*I *808:D I *D sg13cmos5l_or4_1
*I *1118:A I *D sg13cmos5l_dlygate4sd3_1
*I *974:Q O *D sg13cmos5l_dfrbpq_1
*CAP
1 *808:D 4.72978e-05
2 *1118:A 0
3 *974:Q 0.000392528
4 *446:10 0.000439826
5 *846:A2 *446:10 1.69409e-05
6 *165:8 *446:10 0
7 *326:31 *446:10 0
8 *445:25 *446:10 0
*RES
1 *974:Q *446:10 24.326 
2 *446:10 *1118:A 20 
3 *446:10 *808:D 20.5974 
*END

*D_NET *447 0.00637116
*CONN
*I *1126:A I *D sg13cmos5l_dlygate4sd3_1
*I *800:A I *D sg13cmos5l_nor3_1
*I *1136:A I *D sg13cmos5l_dlygate4sd3_1
*I *786:B_N I *D sg13cmos5l_nor2b_1
*I *793:A I *D sg13cmos5l_nor2_1
*I *979:Q O *D sg13cmos5l_dfrbpq_1
*CAP
1 *1126:A 0
2 *800:A 0
3 *1136:A 3.30638e-05
4 *786:B_N 2.60565e-05
5 *793:A 0.000666438
6 *979:Q 0
7 *447:56 0.00039566
8 *447:41 0.000806118
9 *447:10 0.00096906
10 *447:8 0.000398918
11 *447:4 0.000499747
12 *793:A *448:72 0
13 *447:10 *448:48 0
14 *447:41 *800:B 0
15 *763:A *793:A 0
16 *775:A *793:A 0
17 *792:B *793:A 0
18 *807:A *786:B_N 4.77425e-05
19 *807:A *793:A 7.68089e-05
20 *807:A *447:10 0.000399038
21 *862:A *793:A 0
22 *863:A1 *447:41 0
23 *863:B1 *447:41 0
24 *864:A2 *1136:A 4.77699e-05
25 *864:A2 *447:41 0
26 *966:A *447:8 0
27 *1068:A *447:41 0
28 *55:10 *447:8 0.000128408
29 *109:12 *447:41 0
30 *121:47 *447:10 0
31 *125:12 *447:56 0
32 *125:16 *447:56 0
33 *125:26 *447:41 0
34 *131:6 *447:56 0.000208156
35 *133:12 *447:56 8.0216e-05
36 *133:58 *1136:A 0
37 *133:58 *447:41 0
38 *133:58 *447:56 0
39 *135:10 *447:56 0
40 *137:42 *786:B_N 4.77425e-05
41 *142:10 *793:A 0.000130621
42 *142:10 *447:10 0.000801118
43 *256:101 *447:56 0
44 *269:23 *793:A 0
45 *269:42 *793:A 0
46 *305:36 *793:A 0.000396262
47 *325:10 *447:10 0.000212215
48 *388:12 *447:41 0
*RES
1 *979:Q *447:4 20 
2 *447:4 *447:8 21.0918 
3 *447:8 *447:10 4.7998 
4 *447:10 *793:A 46.3551 
5 *447:10 *786:B_N 40.3193 
6 *447:8 *1136:A 40.3193 
7 *447:4 *447:41 3.7801 
8 *447:41 *800:A 20 
9 *447:41 *447:56 43.4608 
10 *447:56 *1126:A 20 
*END

*D_NET *448 0.00580687
*CONN
*I *793:B I *D sg13cmos5l_nor2_1
*I *800:B I *D sg13cmos5l_nor3_1
*I *1117:A I *D sg13cmos5l_dlygate4sd3_1
*I *819:B2 I *D sg13cmos5l_a22oi_1
*I *786:A I *D sg13cmos5l_nor2b_1
*I *980:Q O *D sg13cmos5l_dfrbpq_1
*CAP
1 *793:B 0
2 *800:B 0.000282624
3 *1117:A 0
4 *819:B2 0
5 *786:A 0.000120513
6 *980:Q 0
7 *448:72 0.000358444
8 *448:48 0.000545157
9 *448:35 8.04426e-05
10 *448:27 0.000371692
11 *448:14 0.000560597
12 *448:12 0.000603128
13 *448:4 0.000550204
14 *775:A *448:72 0
15 *792:B *448:48 7.65627e-05
16 *792:B *448:72 0
17 *793:A *448:72 0
18 *108:18 *448:12 0.000504542
19 *108:18 *448:48 0
20 *119:8 *448:35 8.00842e-05
21 *121:30 *786:A 0
22 *121:30 *448:14 0
23 *121:47 *448:48 0.000397372
24 *121:57 *448:48 0
25 *133:58 *800:B 0
26 *136:8 *448:35 7.53765e-05
27 *137:34 *448:14 0
28 *148:14 *448:35 0.000112426
29 *256:10 *448:12 0
30 *256:10 *448:14 8.01116e-05
31 *269:42 *448:72 0.000143171
32 *269:64 *800:B 4.77425e-05
33 *270:10 *800:B 0
34 *281:10 *448:35 7.68089e-05
35 *346:10 *448:12 0.000291475
36 *346:10 *448:48 0.000448392
37 *447:10 *448:48 0
38 *447:41 *800:B 0
*RES
1 *980:Q *448:4 20 
2 *448:4 *448:12 42.8634 
3 *448:12 *448:14 1.4008 
4 *448:14 *786:A 20.9682 
5 *448:14 *448:27 42.266 
6 *448:27 *448:35 41.1021 
7 *448:35 *819:B2 20 
8 *448:12 *448:48 43.914 
9 *448:48 *1117:A 20 
10 *448:48 *800:B 22.678 
11 *448:4 *448:72 43.09 
12 *448:72 *793:B 20 
*END

*D_NET *449 0.00294271
*CONN
*I *1130:A I *D sg13cmos5l_dlygate4sd3_1
*I *1066:A I *D sg13cmos5l_dlygate4sd3_1
*I *795:A I *D sg13cmos5l_nand2_1
*I *981:Q O *D sg13cmos5l_dfrbpq_1
*CAP
1 *1130:A 0
2 *1066:A 0.000137143
3 *795:A 0
4 *981:Q 0.000214476
5 *449:48 9.38781e-05
6 *449:26 0.000395302
7 *449:14 0.000974634
8 *449:8 0.000750543
9 *787:C *1066:A 0
10 *787:C *449:14 4.24346e-05
11 *787:A_N *1066:A 1.54556e-05
12 *794:A *449:8 0
13 *1016:A *449:14 0
14 *1040:A *449:14 0
15 *1045:A *449:26 0
16 *24:38 *449:26 0
17 *120:30 *449:14 0
18 *126:12 *449:26 4.79124e-05
19 *126:25 *449:26 3.23965e-05
20 *254:6 *449:14 0
21 *254:17 *449:14 0
22 *335:34 *449:26 0
23 *360:26 *449:48 0.00023853
24 *378:8 *449:8 0
25 *384:23 *449:14 0
26 *384:52 *449:8 0
27 *401:38 *449:48 0
*RES
1 *981:Q *449:8 21.9982 
2 *449:8 *449:14 3.88672 
3 *449:14 *449:26 43.8522 
4 *449:26 *795:A 20 
5 *449:14 *1066:A 21.4832 
6 *449:8 *449:48 41.0918 
7 *449:48 *1130:A 20 
*END
